 vasp.5.4.4.18Apr17-6-g9f103f2a35 (build May 24 2018 15:12:59) complex

 executed on             LinuxIFC date 2021.02.16  09:52:49

 INCAR:
 POTCAR:    PAW_PBE Mg 13Apr2007
 POTCAR:    PAW_PBE Sb 06Sep2000

 POTCAR:    PAW_PBE Mg 13Apr2007
   VRHFIN =Mg: s2p0

   TITEL  = PAW_PBE Mg 13Apr2007
   POMASS =   24.305; ZVAL   =    2.000    mass and valenz
   ENMAX  =  126.143; ENMIN  =   94.607 eV

 POTCAR:    PAW_PBE Sb 06Sep2000
   VRHFIN =Sb: s2p3

   TITEL  = PAW_PBE Sb 06Sep2000
   POMASS =  121.750; ZVAL   =    5.000    mass and valenz
   ENMAX  =  172.069; ENMIN  =  129.052 eV

  PAW_PBE Mg 13Apr2007                  :
  PAW_PBE Sb 06Sep2000                  :

 POSCAR: Mg3Sb2
  positions in direct lattice
 exchange correlation table for  LEXCH =        8
   RHO(1)=    0.500       N(1)  =     2000
   RHO(2)=  100.500       N(2)  =     4000

 ion  position               nearest neighbor table
   1  0.000  0.000  0.000-   5 3.11   5 3.11   5 3.11   4 3.11   4 3.11   4 3.11
   2  0.333  0.667  0.634-   5 2.82   5 2.82   5 2.82   4 2.93   3 3.27   3 3.27   3 3.27
   3  0.667  0.333  0.366-   4 2.82   4 2.82   4 2.82   5 2.93   2 3.27   2 3.27   2 3.27
   4  0.333  0.667  0.228-   3 2.82   3 2.82   3 2.82   2 2.93   1 3.11   1 3.11   1 3.11
   5  0.667  0.333  0.772-   2 2.82   2 2.82   2 2.82   3 2.93   1 3.11   1 3.11   1 3.11

  LATTYP: Found a hexagonal cell.
 ALAT       =     4.5679998398
 C/A-ratio  =     1.5825307236

  Lattice vectors:

 A1 = (   4.5679998398,   0.0000000000,   0.0000000000)
 A2 = (  -2.2839999199,   3.9560039057,   0.0000000000)
 A3 = (   0.0000000000,   0.0000000000,   7.2290000916)

Analysis of symmetry for initial positions (statically):
 Subroutine PRICEL returns:
 Original cell was already a primitive cell.

 Routine SETGRP: Setting up the symmetry group for a
 hexagonal supercell.

 Subroutine GETGRP returns: Found 12 space group operations
 (whereof 12 operations were pure point group operations)
 out of a pool of 24 trial point group operations.

The static configuration has the point symmetry D_3d.

Analysis of symmetry for dynamics (positions and initial velocities):
 Subroutine PRICEL returns:
 Original cell was already a primitive cell.

 Routine SETGRP: Setting up the symmetry group for a
 hexagonal supercell.

 Subroutine GETGRP returns: Found 12 space group operations
 (whereof 12 operations were pure point group operations)
 out of a pool of 24 trial point group operations.

The dynamic configuration has the point symmetry D_3d.

 Subroutine INISYM returns: Found 12 space group operations
 (whereof 12 operations are pure point group operations),
 and found     1 'primitive' translations

 KPOINTS: K-Mesh Generated with KP-Resolved Value

Automatic generation of k-mesh.
Space group operators:
 irot       det(A)        alpha          n_x          n_y          n_z        tau_x        tau_y        tau_z
    1     1.000000     0.000000     1.000000     0.000000     0.000000     0.000000     0.000000     0.000000
    2    -1.000000     0.000000     1.000000     0.000000     0.000000     0.000000     0.000000     0.000000
    3     1.000000   120.000000     0.000000     0.000000    -1.000000     0.000000     0.000000     0.000000
    4    -1.000000   120.000000     0.000000     0.000000    -1.000000     0.000000     0.000000     0.000000
    5     1.000000   120.000000     0.000000     0.000000     1.000000     0.000000     0.000000     0.000000
    6    -1.000000   120.000000     0.000000     0.000000     1.000000     0.000000     0.000000     0.000000
    7     1.000000   180.000000     1.000000     0.000000     0.000000     0.000000     0.000000     0.000000
    8    -1.000000   180.000000     1.000000     0.000000     0.000000     0.000000     0.000000     0.000000
    9     1.000000   180.000000     0.500000    -0.866025     0.000000     0.000000     0.000000     0.000000
   10    -1.000000   180.000000     0.500000    -0.866025     0.000000     0.000000     0.000000     0.000000
   11     1.000000   180.000000    -0.500000    -0.866025     0.000000     0.000000     0.000000     0.000000
   12    -1.000000   180.000000    -0.500000    -0.866025     0.000000     0.000000     0.000000     0.000000

 Subroutine IBZKPT returns following result:

 Found     40 irreducible k-points:

 Following reciprocal coordinates:
            Coordinates               Weight
  0.000000  0.000000  0.000000      1.000000
  0.125000  0.000000  0.000000      6.000000
  0.250000  0.000000  0.000000      6.000000
  0.375000 -0.000000  0.000000      6.000000
  0.500000  0.000000  0.000000      3.000000
  0.125000  0.125000  0.000000      6.000000
  0.250000  0.125000  0.000000     12.000000
  0.375000  0.125000  0.000000     12.000000
  0.250000  0.250000  0.000000      6.000000
  0.375000  0.250000  0.000000      6.000000
  0.000000  0.000000  0.200000      2.000000
  0.125000  0.000000  0.200000      6.000000
  0.250000  0.000000  0.200000      6.000000
  0.375000 -0.000000  0.200000      6.000000
  0.500000  0.000000  0.200000      6.000000
 -0.375000  0.000000  0.200000      6.000000
 -0.250000 -0.000000  0.200000      6.000000
 -0.125000 -0.000000  0.200000      6.000000
  0.125000  0.125000  0.200000     12.000000
  0.250000  0.125000  0.200000     12.000000
  0.375000  0.125000  0.200000     12.000000
  0.500000  0.125000  0.200000     12.000000
 -0.375000  0.125000  0.200000     12.000000
  0.250000  0.250000  0.200000     12.000000
  0.375000  0.250000  0.200000     12.000000
  0.000000  0.000000  0.400000      2.000000
  0.125000  0.000000  0.400000      6.000000
  0.250000  0.000000  0.400000      6.000000
  0.375000 -0.000000  0.400000      6.000000
  0.500000  0.000000  0.400000      6.000000
 -0.375000  0.000000  0.400000      6.000000
 -0.250000 -0.000000  0.400000      6.000000
 -0.125000 -0.000000  0.400000      6.000000
  0.125000  0.125000  0.400000     12.000000
  0.250000  0.125000  0.400000     12.000000
  0.375000  0.125000  0.400000     12.000000
  0.500000  0.125000  0.400000     12.000000
 -0.375000  0.125000  0.400000     12.000000
  0.250000  0.250000  0.400000     12.000000
  0.375000  0.250000  0.400000     12.000000

 Following cartesian coordinates:
            Coordinates               Weight
  0.000000  0.000000  0.000000      1.000000
  0.027364  0.015799  0.000000      6.000000
  0.054729  0.031598  0.000000      6.000000
  0.082093  0.047396  0.000000      6.000000
  0.109457  0.063195  0.000000      3.000000
  0.027364  0.047396  0.000000      6.000000
  0.054729  0.063195  0.000000     12.000000
  0.082093  0.078994  0.000000     12.000000
  0.054729  0.094793  0.000000      6.000000
  0.082093  0.110591  0.000000      6.000000
  0.000000  0.000000  0.027666      2.000000
  0.027364  0.015799  0.027666      6.000000
  0.054729  0.031598  0.027666      6.000000
  0.082093  0.047396  0.027666      6.000000
  0.109457  0.063195  0.027666      6.000000
 -0.082093 -0.047396  0.027666      6.000000
 -0.054729 -0.031598  0.027666      6.000000
 -0.027364 -0.015799  0.027666      6.000000
  0.027364  0.047396  0.027666     12.000000
  0.054729  0.063195  0.027666     12.000000
  0.082093  0.078994  0.027666     12.000000
  0.109457  0.094793  0.027666     12.000000
 -0.082093 -0.015799  0.027666     12.000000
  0.054729  0.094793  0.027666     12.000000
  0.082093  0.110591  0.027666     12.000000
  0.000000  0.000000  0.055333      2.000000
  0.027364  0.015799  0.055333      6.000000
  0.054729  0.031598  0.055333      6.000000
  0.082093  0.047396  0.055333      6.000000
  0.109457  0.063195  0.055333      6.000000
 -0.082093 -0.047396  0.055333      6.000000
 -0.054729 -0.031598  0.055333      6.000000
 -0.027364 -0.015799  0.055333      6.000000
  0.027364  0.047396  0.055333     12.000000
  0.054729  0.063195  0.055333     12.000000
  0.082093  0.078994  0.055333     12.000000
  0.109457  0.094793  0.055333     12.000000
 -0.082093 -0.015799  0.055333     12.000000
  0.054729  0.094793  0.055333     12.000000
  0.082093  0.110591  0.055333     12.000000

 SYSTEM =  unknown system
 POSCAR =  Mg3Sb2

 Startparameter for this run:
   NWRITE =      2    write-flag & timer
   PREC   = normal    normal or accurate (medium, high low for compatibility)
   ISTART =      0    job   : 0-new  1-cont  2-samecut
   ICHARG =      2    charge: 1-file 2-atom 10-const
   ISPIN  =      1    spin polarized calculation?
   LNONCOLLINEAR =      F non collinear calculations
   LSORBIT =      F    spin-orbit coupling
   INIWAV =      1    electr: 0-lowe 1-rand  2-diag
   LASPH  =      F    aspherical Exc in radial PAW
   METAGGA=      F    non-selfconsistent MetaGGA calc.

 Electronic Relaxation 1
   ENCUT  =  400.0 eV  29.40 Ry    5.42 a.u.   7.45  7.45 11.79*2*pi/ulx,y,z
   ENINI  =  400.0     initial cutoff
   ENAUG  =  454.7 eV  augmentation charge cutoff
   NELM   =     60;   NELMIN=  2; NELMDL= -5     # of ELM steps
   EDIFF  = 0.1E-04   stopping-criterion for ELM
   LREAL  =      F    real-space projection
   NLSPLINE    = F    spline interpolate recip. space projectors
   LCOMPAT=      F    compatible to vasp.4.4
   GGA_COMPAT  = T    GGA compatible to vasp.4.4-vasp.4.6
   LMAXPAW     = -100 max onsite density
   LMAXMIX     =    2 max onsite mixed and CHGCAR
   VOSKOWN=      0    Vosko Wilk Nusair interpolation
   ROPT   =    0.00000   0.00000
 Ionic relaxation
   EDIFFG = -.5E-02   stopping-criterion for IOM
   NSW    =    300    number of steps for IOM
   NBLOCK =      1;   KBLOCK =    300    inner block; outer block
   IBRION =      2    ionic relax: 0-MD 1-quasi-New 2-CG
   NFREE  =      1    steps in history (QN), initial steepest desc. (CG)
   ISIF   =      3    stress and relaxation
   IWAVPR =     11    prediction:  0-non 1-charg 2-wave 3-comb
   ISYM   =      2    0-nonsym 1-usesym 2-fastsym
   LCORR  =      T    Harris-Foulkes like correction to forces

   POTIM  = 0.5000    time-step for ionic-motion
   TEIN   =    0.0    initial temperature
   TEBEG  =    0.0;   TEEND  =   0.0 temperature during run
   SMASS  =  -3.00    Nose mass-parameter (am)
   estimated Nose-frequenzy (Omega)   =  0.10E-29 period in steps =****** mass=  -0.477E-27a.u.
   SCALEE = 1.0000    scale energy and forces
   NPACO  =    256;   APACO  = 16.0  distance and # of slots for P.C.
   PSTRESS=    0.0 pullay stress

  Mass of Ions in am
   POMASS =  24.30121.75
  Ionic Valenz
   ZVAL   =   2.00  5.00
  Atomic Wigner-Seitz radii
  virtual crystal weights
   VCA    =   1.00  1.00
   NELECT =      16.0000    total number of electrons
   NUPDOWN=      -1.0000    fix difference up-down

 DOS related values:
   EMIN   =  10.00;   EMAX   =-10.00  energy-range for DOS
   EFERMI =   0.00
   ISMEAR =     0;   SIGMA  =   0.05  broadening in eV -4-tet -1-fermi 0-gaus

 Electronic relaxation 2 (details)
   IALGO  =     38    algorithm
   LDIAG  =      T    sub-space diagonalisation (order eigenvalues)
   LSUBROT=      F    optimize rotation matrix (better conditioning)
   TURBO    =      0    0=normal 1=particle mesh
   IRESTART =      0    0=no restart 2=restart with 2 vectors
   NREBOOT  =      0    no. of reboots
   NMIN     =      0    reboot dimension
[...]
 k-point 11 :   0.0000 0.0000 0.2000  plane waves:    2381
 k-point 12 :   0.1250 0.0000 0.2000  plane waves:    2385
 k-point 13 :   0.2500 0.0000 0.2000  plane waves:    2381
 k-point 14 :   0.3750-0.0000 0.2000  plane waves:    2374
 k-point 15 :   0.5000 0.0000 0.2000  plane waves:    2368
 k-point 16 :  -0.3750 0.0000 0.2000  plane waves:    2374
 k-point 17 :  -0.2500-0.0000 0.2000  plane waves:    2381
 k-point 18 :  -0.1250-0.0000 0.2000  plane waves:    2385
 k-point 19 :   0.1250 0.1250 0.2000  plane waves:    2396
 k-point 20 :   0.2500 0.1250 0.2000  plane waves:    2372
 k-point 21 :   0.3750 0.1250 0.2000  plane waves:    2360
 k-point 22 :   0.5000 0.1250 0.2000  plane waves:    2360
 k-point 23 :  -0.3750 0.1250 0.2000  plane waves:    2372
 k-point 24 :   0.2500 0.2500 0.2000  plane waves:    2365
 k-point 25 :   0.3750 0.2500 0.2000  plane waves:    2363
 k-point 26 :   0.0000 0.0000 0.4000  plane waves:    2400
 k-point 27 :   0.1250 0.0000 0.4000  plane waves:    2396
 k-point 28 :   0.2500 0.0000 0.4000  plane waves:    2388
 k-point 29 :   0.3750-0.0000 0.4000  plane waves:    2377
 k-point 30 :   0.5000 0.0000 0.4000  plane waves:    2364
 k-point 31 :  -0.3750 0.0000 0.4000  plane waves:    2377
 k-point 32 :  -0.2500-0.0000 0.4000  plane waves:    2388
 k-point 33 :  -0.1250-0.0000 0.4000  plane waves:    2396
 k-point 34 :   0.1250 0.1250 0.4000  plane waves:    2377
 k-point 35 :   0.2500 0.1250 0.4000  plane waves:    2376
 k-point 36 :   0.3750 0.1250 0.4000  plane waves:    2366
 k-point 37 :   0.5000 0.1250 0.4000  plane waves:    2366
 k-point 38 :  -0.3750 0.1250 0.4000  plane waves:    2376
 k-point 39 :   0.2500 0.2500 0.4000  plane waves:    2378
 k-point 40 :   0.3750 0.2500 0.4000  plane waves:    2348

 maximum and minimum number of plane-waves per node :       129      108

 maximum number of plane-waves:      2400
 maximum index in each direction:
   IXMAX=    7   IYMAX=    7   IZMAX=   11
   IXMIN=   -7   IYMIN=   -7   IZMIN=  -12

 parallel 3D FFT for wavefunctions:
    minimum data exchange during FFTs selected (reduces bandwidth)
 parallel 3D FFT for charge:
    minimum data exchange during FFTs selected (reduces bandwidth)

 Broyden mixing: mesh for mixing (old mesh)
   NGX = 15   NGY = 15   NGZ = 23
  (NGX  = 48   NGY  = 48   NGZ  = 72)
  gives a total of   5175 points

 initial charge density was supplied:
 charge density of overlapping atoms calculated
 number of electron      16.0000000 magnetization
 keeping initial charge density in first step

 Maximum index for augmentation-charges          379 (set IRDMAX)

 First call to EWALD:  gamma=   0.349
 Maximum number of real-space cells 3x 3x 2
 Maximum number of reciprocal cells 3x 3x 4

--------------------------------------- Iteration      1(   1)  ---------------------------------------

 eigenvalue-minimisations  :   960
 total energy-change (2. order) : 0.4222108E+02  (-0.4510203E+03)
 number of electron      16.0000000 magnetization
 augmentation part       16.0000000 magnetization

 Free energy of the ion-electron system (eV)
  alpha Z        PSCENC =         5.34845761
  Ewald energy   TEWEN  =      -389.91498094
  -Hartree energ DENC   =       -22.54401013
  -exchange      EXHF   =         0.00000000
  -V(xc)+E(xc)   XCENC  =      -238.67624789
  PAW double counting   =       523.27902600     -259.77882247
  entropy T*S    EENTRO =        -0.00291188
  eigenvalues    EBANDS =        55.49885699
  atomic energy  EATOM  =       369.01171218
  Solvation  Ediel_sol  =         0.00000000
  free energy    TOTEN  =        42.22107947 eV

  energy without entropy =       42.22399134  energy(sigma->0) =       42.22253540

[...]

 eigenvalue-minimisations  :  1216
 total energy-change (2. order) :-0.5388097E+02  (-0.4945129E+02)
 number of electron      16.0000000 magnetization
 augmentation part       16.0000000 magnetization

[...]

 Broyden mixing:
  rms(total) = 0.44265E+00    rms(broyden)= 0.44265E+00
  rms(prec ) = 0.70167E+00
  weight for this iteration     100.00

[...]

 eigenvalues of (default mixing * dielectric matrix)
  average eigenvalue GAMMA=   2.3042
  2.3042

[...]

 average (electrostatic) potential at core
  the test charge radii are     1.0714  1.1712
  (the norm of the test charge is              1.0000)
       1 -38.3772       2 -37.6568       3 -37.6568       4 -87.4573       5 -87.4573

 E-fermi :   4.5980     XC(G=0):  -8.7999     alpha+bet : -9.4074

 k-point     1 :       0.0000    0.0000    0.0000
  band No.  band energies     occupation
      1      -5.8288      2.00000
      2      -4.5840      2.00000
      3      -0.4360      2.00000
      4       3.3863      2.00000
      5       3.3863      2.00000
      6       4.0925      2.00000
      7       4.0925      2.00000
      8       4.5019      1.99339
      9       5.6160      0.00000
     10       5.7217      0.00000
     11       7.5308      0.00000
     12       7.5308      0.00000

[...]

 soft charge-density along one line, spin component           1
         0         1         2         3         4         5         6         7         8         9
 total charge-density along one line

------------------------ aborting loop because EDIFF is reached ----------------------------------------

  FORCE on cell =-STRESS in cart. coord.  units (eV):
  Direction    XX          YY          ZZ          XY          YZ          ZX
  Alpha Z     5.34846     5.34846     5.34846
  Ewald    -129.75658  -129.75656  -130.40232    -0.00001     0.00000     0.00000
  Hartree     9.17473     9.17473    10.84242     0.00000     0.00000     0.00000
  E(xc)     -56.23717   -56.23718   -55.99213    -0.00001    -0.00000     0.00000
  Local     -71.86424   -71.86428   -72.97442    -0.00002    -0.00000    -0.00000
  n-local   187.26834   190.80137   186.75506    -4.29351    -0.45460    -0.57368
  augment   -33.36551   -33.36548   -32.96253     0.00003    -0.00000     0.00000
  Kinetic    86.51944    90.49276    90.15422    -2.81579     0.29221    -0.48347
  Fock        0.00000     0.00000     0.00000     0.00000     0.00000     0.00000
  Total       0.84064     0.84064     0.76877    -0.00000     0.00000     0.00000
  in kB      10.31000    10.31000     9.42853    -0.00000     0.00000     0.00000

 VOLUME and BASIS-vectors are now :
  energy-cutoff  :      400.00
  volume of cell :      130.64
      direct lattice vectors                 reciprocal lattice vectors
     4.567999840  0.000000000  0.000000000     0.218914193  0.126390168  0.000000000
    -2.283999920  3.956003906  0.000000000     0.000000000  0.252780337  0.000000000
     0.000000000  0.000000000  7.229000092     0.000000000  0.000000000  0.138331718

[...]

 FORCES acting on ions
    electron-ion (+dipol)            ewald-force                    non-local-force                 convergence-correction
   -.126E-06 0.592E-14 0.691E-07   -.894E-06 -.214E-12 0.459E-06   0.132E-22 0.000E+00 0.000E+00   0.129E-08 0.154E-15 0.421E-07
   -.192E-05 0.188E-05 0.190E+01   -.172E-05 -.215E-05 -.203E+01   0.486E-16 0.000E+00 0.934E-01   0.238E-08 0.186E-08 -.285E-03
   0.455E-07 -.188E-05 -.190E+01   0.181E-05 0.215E-05 0.203E+01   -.139E-16 0.000E+00 -.934E-01   -.299E-08 -.186E-08 0.285E-03
   0.269E-06 -.136E-04 -.130E+01   -.176E-05 -.263E-05 -.409E+00   0.208E-16 0.139E-16 0.154E+01   0.427E-08 0.113E-07 0.492E-03
   0.230E-04 0.136E-04 0.130E+01   0.257E-05 0.263E-05 0.409E+00   0.694E-17 -.139E-16 -.154E+01   -.134E-07 -.113E-07 -.492E-03
   0.213E-04 -.102E-11 -.373E-04   -.308E-15 0.383E-15 0.000E+00   0.625E-16 0.000E+00 0.000E+00   -.849E-08 0.194E-13 0.270E-07

 POSITION                                       TOTAL-FORCE (eV/Angst)
      0.00000      0.00000      0.00000        -0.000000      0.000000      0.000000
     -0.00000      2.63734      4.58246        -0.000000      0.000000     -0.039996
      2.28400      1.31867      2.64654        -0.000000      0.000000      0.039996
     -0.00000      2.63734      1.65038        -0.000000     -0.000000     -0.163384
      2.28400      1.31867      5.57862         0.000000      0.000000      0.163384
    total drift:                                0.000021     -0.000000     -0.000037

  FREE ENERGIE OF THE ION-ELECTRON SYSTEM (eV)
  free  energy   TOTEN  =       -14.63348710 eV

  energy  without entropy=      -14.63348231  energy(sigma->0) =      -14.63348470

[...]

 d Force = 0.1900544E-02[ 0.105E-02, 0.275E-02]  d Energy = 0.9874832E-02-0.797E-02
 d Force = 0.1055621E-01[ 0.672E-02, 0.144E-01]  d Ewald  =-0.3037649E+01 0.305E+01

 Steepest descent step on ions:
 trial-energy change:   -0.009875  1 .order   -0.010132   -0.022069    0.001804
  (g-gl).g = 0.221E-01      g.g   = 0.221E-01  gl.gl    = 0.000E+00
 g(Force)  = 0.273E-02   g(Stress)= 0.193E-01 ortho     = 0.000E+00
 gamma     =   0.00000
 trial     =   1.00000
 opt step  =   0.91964  (harmonic =   0.92443) maximal distance =0.00724870
 next E    =   -14.643435   (d E  =  -0.00995)

[...]

 d Force =-0.8906151E-04[-0.943E-04,-0.838E-04]  d Energy = 0.6973097E-04-0.159E-03
 d Force =-0.5595946E-03[-0.584E-03,-0.536E-03]  d Ewald  = 0.2426190E+00-0.243E+00

[...]

 d Force = 0.4884425E-03[ 0.426E-03, 0.551E-03]  d Energy = 0.5174839E-03-0.290E-04
 d Force = 0.5936021E-02[ 0.538E-02, 0.649E-02]  d Ewald  = 0.1060442E+00-0.100E+00

 Conjugate gradient step on ions:
 trial-energy change:   -0.000517  1 .order   -0.000524   -0.000588   -0.000459
  (g-gl).g = 0.544E-03      g.g   = 0.596E-03  gl.gl    = 0.221E-01
 g(Force)  = 0.531E-03   g(Stress)= 0.652E-04 ortho     = 0.523E-04
 gamma     =   0.02465
 trial     =   0.98393
 opt step  =   3.93571  (harmonic =   4.49828) maximal distance =0.01338094
 next E    =   -14.644776   (d E  =  -0.00134)

[...]

 Conjugate gradient step on ions:
 trial-energy change:   -0.000054  1 .order   -0.000055   -0.000071   -0.000039
  (g-gl).g = 0.316E-04      g.g   = 0.425E-04  gl.gl    = 0.596E-03
 g(Force)  = 0.397E-04   g(Stress)= 0.280E-05 ortho     = 0.800E-05
 gamma     =   0.05304
 trial     =   1.65662
 opt step  =   3.64861  (harmonic =   3.64861) maximal distance =0.00359321
 next E    =   -14.644790   (d E  =  -0.00008)

[...]

 d Force = 0.2764095E-04[ 0.785E-05, 0.474E-04]  d Energy = 0.1836698E-04 0.927E-05
 d Force = 0.9881097E-02[ 0.973E-02, 0.100E-01]  d Ewald  = 0.4274870E-01-0.329E-01

[...]

 eigenvalue-minimisations  :  1068
 total energy-change (2. order) :-0.4546829E-04  (-0.7064552E-04)
 number of electron      15.9999995 magnetization
 augmentation part       -1.5375275 magnetization

[...]

 Broyden mixing:
  rms(total) = 0.12128E-02    rms(broyden)= 0.12127E-02
  rms(prec ) = 0.18876E-02
  weight for this iteration     100.00

 eigenvalues of (default mixing * dielectric matrix)
  average eigenvalue GAMMA=   1.7217
  1.7217

[...]

--------------------------------------- Iteration      9(   3)  ---------------------------------------

 eigenvalue-minimisations  :   524
 total energy-change (2. order) : 0.6237184E-05  (-0.1854808E-05)
 number of electron      15.9999995 magnetization
 augmentation part       -1.5372169 magnetization

 Free energy of the ion-electron system (eV)
  alpha Z        PSCENC =         5.24900307
  Ewald energy   TEWEN  =      -387.53429618
  -Hartree energ DENC   =       -29.73969942
  -exchange      EXHF   =         0.00000000
  -V(xc)+E(xc)   XCENC  =      -237.45068844
  PAW double counting   =       970.23717590     -706.96146454
  entropy T*S    EENTRO =        -0.00001369
  eigenvalues    EBANDS =         2.54346628
  atomic energy  EATOM  =       369.01171218
  Solvation  Ediel_sol  =         0.00000000
  free energy    TOTEN  =       -14.64480485 eV

  energy without entropy =      -14.64479116  energy(sigma->0) =      -14.64479801

 average (electrostatic) potential at core
  the test charge radii are     1.0714  1.1712
  (the norm of the test charge is              1.0000)
       1 -38.5313       2 -37.8429       3 -37.8429       4 -87.6102       5 -87.6102

 E-fermi :   4.4321     XC(G=0):  -8.7340     alpha+bet : -9.2324

[...]

 k-point    40 :       0.3750    0.2500    0.4000
  band No.  band energies     occupation
      1      -4.5357      2.00000
      2      -4.4712      2.00000
      3      -0.1057      2.00000
      4       0.1147      2.00000
      5       0.6708      2.00000
      6       1.3550      2.00000
      7       3.0246      2.00000
      8       3.3179      2.00000
      9       5.8694      0.00000
     10       6.4021      0.00000
     11       6.5732      0.00000
     12       7.5269      0.00000

 soft charge-density along one line, spin component           1
         0         1         2         3         4         5         6         7         8         9
 total charge-density along one line

------------------------ aborting loop because EDIFF is reached ----------------------------------------

  FORCE on cell =-STRESS in cart. coord.  units (eV):
  Direction    XX          YY          ZZ          XY          YZ          ZX
  Alpha Z     5.24900     5.24900     5.24900
  Ewald    -129.14694  -129.14692  -129.24091    -0.00001     0.00000     0.00000
  Hartree     9.44759     9.44759    10.84233     0.00000     0.00000     0.00000
  E(xc)     -55.96619   -55.96620   -55.73122    -0.00001    -0.00000     0.00000
  Local     -72.24966   -72.24970   -73.41241    -0.00002    -0.00000    -0.00000
  n-local   186.35758   189.86000   185.91800    -4.28068    -0.45100    -0.58000
  augment   -33.38633   -33.38629   -32.96509     0.00003    -0.00000     0.00000
  Kinetic    85.92724    89.92323    89.36014    -2.86425     0.30028    -0.44314
  Fock        0.00000     0.00000     0.00000     0.00000     0.00000     0.00000
  Total      -0.01849    -0.01849     0.01984     0.00000     0.00000    -0.00000
  in kB      -0.22260    -0.22260     0.23882     0.00000     0.00000    -0.00000

 VOLUME and BASIS-vectors are now :
  energy-cutoff  :      400.00
  volume of cell :      133.11
      direct lattice vectors                 reciprocal lattice vectors
     4.597849902  0.000000000  0.000000000     0.217492963  0.125569621 -0.000000000
    -2.298924951  3.981854818  0.000000000    -0.000000000  0.251139242 -0.000000000
    -0.000000000  0.000000000  7.270638344     0.000000000 -0.000000000  0.137539505

  length of vectors
     4.597849902  4.597849902  7.270638344     0.251139242  0.251139242  0.137539505

 FORCES acting on ions
    electron-ion (+dipol)            ewald-force                    non-local-force                 convergence-correction
   -.127E-06 0.237E-14 0.577E-07   -.902E-06 -.216E-12 0.389E-06   -.137E-24 0.275E-24 0.000E+00   -.247E-10 0.192E-15 0.137E-08
   -.143E-05 0.167E-05 0.217E+01   -.167E-05 -.208E-05 -.230E+01   -.416E-16 0.277E-19 0.137E+00   -.315E-09 0.186E-09 0.265E-03
   -.365E-06 -.167E-05 -.217E+01   0.175E-05 0.208E-05 0.230E+01   0.486E-16 -.277E-19 -.137E+00   0.321E-09 -.186E-09 -.265E-03
   0.305E-06 -.138E-04 -.265E+01   -.171E-05 -.257E-05 0.752E+00   0.345E-16 -.135E-16 0.190E+01   -.960E-10 -.212E-09 -.168E-02
   0.233E-04 0.138E-04 0.265E+01   0.252E-05 0.257E-05 -.752E+00   -.553E-16 0.135E-16 -.190E+01   0.338E-09 0.212E-09 0.168E-02
   0.216E-04 0.250E-11 -.377E-04   0.260E-15 0.310E-15 0.000E+00   -.139E-16 -.461E-23 0.000E+00   0.223E-09 0.721E-14 0.409E-09

 POSITION                                       TOTAL-FORCE (eV/Angst)
     -0.00000     -0.00000      0.00000        -0.000000     -0.000000      0.000000
     -0.00000      2.65457      4.59531        -0.000000      0.000000      0.000955
      2.29892      1.32728      2.67533         0.000000     -0.000000     -0.000955
     -0.00000      2.65457      1.63863        -0.000000     -0.000000      0.000192
      2.29892      1.32728      5.63201         0.000000      0.000000     -0.000192
    total drift:                                0.000022      0.000000     -0.000038

  FREE ENERGIE OF THE ION-ELECTRON SYSTEM (eV)
  free  energy   TOTEN  =       -14.64480485 eV

  energy  without entropy=      -14.64479116  energy(sigma->0) =      -14.64479801

 d Force = 0.1326990E-05[-0.199E-05, 0.464E-05]  d Energy = 0.2054079E-04-0.192E-04
 d Force = 0.4920539E-02[ 0.491E-02, 0.493E-02]  d Ewald  =-0.1247009E+00 0.130E+00

 Conjugate gradient step on ions:
 trial-energy change:   -0.000021  1 .order   -0.000016   -0.000030   -0.000002
  (g-gl).g = 0.173E-04      g.g   = 0.154E-04  gl.gl    = 0.425E-04
 g(Force)  = 0.652E-06   g(Stress)= 0.147E-04 ortho     =-0.182E-05
 gamma     =   0.40687
 trial     =   2.05501
 opt step  =   2.18728  (harmonic =   2.18728) maximal distance =0.00111597
 next E    =   -14.644800   (d E  =  -0.00002)

 reached required accuracy - stopping structural energy minimisation