 vasp.5.4.4.18Apr17-6-g9f103f2a35 (build May 24 2018 15:12:59) complex

 executed on             LinuxIFC date 2021.02.16  09:56:39

 INCAR:
 POTCAR:    PAW_PBE Mg 13Apr2007
 POTCAR:    PAW_PBE Sb 06Sep2000
 POTCAR:    PAW_PBE Mg 13Apr2007
   VRHFIN =Mg: s2p0

   TITEL  = PAW_PBE Mg 13Apr2007
   POMASS =   24.305; ZVAL   =    2.000    mass and valenz
   ENMAX  =  126.143; ENMIN  =   94.607 eV

 POTCAR:    PAW_PBE Sb 06Sep2000
   VRHFIN =Sb: s2p3

   TITEL  = PAW_PBE Sb 06Sep2000
   POMASS =  121.750; ZVAL   =    5.000    mass and valenz
   ENMAX  =  172.069; ENMIN  =  129.052 eV

  PAW_PBE Mg 13Apr2007                  :
  PAW_PBE Sb 06Sep2000                  :

 POSCAR: Mg3Sb2
  positions in direct lattice
  velocities in cartesian coordinates
 exchange correlation table for  LEXCH =        8
   RHO(1)=    0.500       N(1)  =     2000
   RHO(2)=  100.500       N(2)  =     4000

 ion  position               nearest neighbor table
   1  0.000  0.000  0.000-   5 3.12   5 3.12   5 3.12   4 3.12   4 3.12   4 3.12
   2  0.333  0.667  0.632-   5 2.85   5 2.85   5 2.85   4 2.96   3 3.28   3 3.28   3 3.28
   3  0.667  0.333  0.368-   4 2.85   4 2.85   4 2.85   5 2.96   2 3.28   2 3.28   2 3.28
   4  0.333  0.667  0.225-   3 2.85   3 2.85   3 2.85   2 2.96   1 3.12   1 3.12   1 3.12
   5  0.667  0.333  0.775-   2 2.85   2 2.85   2 2.85   3 2.96   1 3.12   1 3.12   1 3.12

  LATTYP: Found a hexagonal cell.
 ALAT       =     4.5978499023
 C/A-ratio  =     1.5813126784

  Lattice vectors:

 A1 = (   4.5978499024,   0.0000000000,   0.0000000000)
 A2 = (  -2.2989249512,   3.9818548182,   0.0000000000)
 A3 = (   0.0000000000,   0.0000000000,   7.2706383437)

Analysis of symmetry for initial positions (statically):
 Subroutine PRICEL returns:
 Original cell was already a primitive cell.

 Routine SETGRP: Setting up the symmetry group for a
 hexagonal supercell.

 Subroutine GETGRP returns: Found 12 space group operations
 (whereof 12 operations were pure point group operations)
 out of a pool of 24 trial point group operations.

The static configuration has the point symmetry D_3d.

Analysis of symmetry for dynamics (positions and initial velocities):
 Subroutine PRICEL returns:
 Original cell was already a primitive cell.

 Routine SETGRP: Setting up the symmetry group for a
 hexagonal supercell.

 Subroutine GETGRP returns: Found 12 space group operations
 (whereof 12 operations were pure point group operations)
 out of a pool of 24 trial point group operations.

The dynamic configuration has the point symmetry D_3d.

 Subroutine INISYM returns: Found 12 space group operations
 (whereof 12 operations are pure point group operations),
 and found     1 'primitive' translations

 KPOINTS: K-Mesh Generated with KP-Resolved Value

Automatic generation of k-mesh.
Space group operators:
 irot       det(A)        alpha          n_x          n_y          n_z        tau_x        tau_y        tau_z
    1     1.000000     0.000001     1.000000     0.000000     0.000000     0.000000     0.000000     0.000000
    2    -1.000000     0.000001     1.000000     0.000000     0.000000     0.000000     0.000000     0.000000
    3     1.000000   120.000000     0.000000     0.000000    -1.000000     0.000000     0.000000     0.000000
    4    -1.000000   120.000000     0.000000     0.000000    -1.000000     0.000000     0.000000     0.000000
    5     1.000000   120.000000     0.000000     0.000000     1.000000     0.000000     0.000000     0.000000
    6    -1.000000   120.000000     0.000000     0.000000     1.000000     0.000000     0.000000     0.000000
    7     1.000000   180.000000     1.000000     0.000000     0.000000     0.000000     0.000000     0.000000
    8    -1.000000   180.000000     1.000000     0.000000     0.000000     0.000000     0.000000     0.000000
    9     1.000000   180.000000     0.500000    -0.866025     0.000000     0.000000     0.000000     0.000000
   10    -1.000000   180.000000     0.500000    -0.866025     0.000000     0.000000     0.000000     0.000000
   11     1.000000   180.000000    -0.500000    -0.866025     0.000000     0.000000     0.000000     0.000000
   12    -1.000000   180.000000    -0.500000    -0.866025     0.000000     0.000000     0.000000     0.000000

 Subroutine IBZKPT returns following result:

 Found     40 irreducible k-points:

 Following reciprocal coordinates:
            Coordinates               Weight
  0.000000  0.000000  0.000000      1.000000
  0.125000  0.000000  0.000000      6.000000
  0.250000  0.000000  0.000000      6.000000
  0.375000  0.000000  0.000000      6.000000
  0.500000  0.000000  0.000000      3.000000
  0.125000  0.125000  0.000000      6.000000
  0.250000  0.125000  0.000000     12.000000
  0.375000  0.125000  0.000000     12.000000
  0.250000  0.250000  0.000000      6.000000
  0.375000  0.250000  0.000000      6.000000
  0.000000  0.000000  0.200000      2.000000
  0.125000  0.000000  0.200000      6.000000
  0.250000  0.000000  0.200000      6.000000
  0.375000  0.000000  0.200000      6.000000
  0.500000  0.000000  0.200000      6.000000
 -0.375000 -0.000000  0.200000      6.000000
 -0.250000 -0.000000  0.200000      6.000000
 -0.125000 -0.000000  0.200000      6.000000
  0.125000  0.125000  0.200000     12.000000
  0.250000  0.125000  0.200000     12.000000
  0.375000  0.125000  0.200000     12.000000
  0.500000  0.125000  0.200000     12.000000
 -0.375000  0.125000  0.200000     12.000000
  0.250000  0.250000  0.200000     12.000000
  0.375000  0.250000  0.200000     12.000000
  0.000000  0.000000  0.400000      2.000000
  0.125000  0.000000  0.400000      6.000000
  0.250000  0.000000  0.400000      6.000000
  0.375000  0.000000  0.400000      6.000000
  0.500000  0.000000  0.400000      6.000000
 -0.375000 -0.000000  0.400000      6.000000
 -0.250000 -0.000000  0.400000      6.000000
 -0.125000 -0.000000  0.400000      6.000000
  0.125000  0.125000  0.400000     12.000000
  0.250000  0.125000  0.400000     12.000000
  0.375000  0.125000  0.400000     12.000000
  0.500000  0.125000  0.400000     12.000000
 -0.375000  0.125000  0.400000     12.000000
  0.250000  0.250000  0.400000     12.000000
  0.375000  0.250000  0.400000     12.000000

 Following cartesian coordinates:
            Coordinates               Weight
  0.000000  0.000000  0.000000      1.000000
  0.027187  0.015696  0.000000      6.000000
  0.054373  0.031392  0.000000      6.000000
  0.081560  0.047089  0.000000      6.000000
  0.108746  0.062785  0.000000      3.000000
  0.027187  0.047089  0.000000      6.000000
  0.054373  0.062785  0.000000     12.000000
  0.081560  0.078481  0.000000     12.000000
  0.054373  0.094177  0.000000      6.000000
  0.081560  0.109873  0.000000      6.000000
  0.000000  0.000000  0.027508      2.000000
  0.027187  0.015696  0.027508      6.000000
  0.054373  0.031392  0.027508      6.000000
  0.081560  0.047089  0.027508      6.000000
  0.108746  0.062785  0.027508      6.000000
 -0.081560 -0.047089  0.027508      6.000000
 -0.054373 -0.031392  0.027508      6.000000
 -0.027187 -0.015696  0.027508      6.000000
  0.027187  0.047089  0.027508     12.000000
  0.054373  0.062785  0.027508     12.000000
  0.081560  0.078481  0.027508     12.000000
  0.108746  0.094177  0.027508     12.000000
 -0.081560 -0.015696  0.027508     12.000000
  0.054373  0.094177  0.027508     12.000000
  0.081560  0.109873  0.027508     12.000000
  0.000000  0.000000  0.055016      2.000000
  0.027187  0.015696  0.055016      6.000000
  0.054373  0.031392  0.055016      6.000000
  0.081560  0.047089  0.055016      6.000000
  0.108746  0.062785  0.055016      6.000000
 -0.081560 -0.047089  0.055016      6.000000
 -0.054373 -0.031392  0.055016      6.000000
 -0.027187 -0.015696  0.055016      6.000000
  0.027187  0.047089  0.055016     12.000000
  0.054373  0.062785  0.055016     12.000000
  0.081560  0.078481  0.055016     12.000000
  0.108746  0.094177  0.055016     12.000000
 -0.081560 -0.015696  0.055016     12.000000
  0.054373  0.094177  0.055016     12.000000
  0.081560  0.109873  0.055016     12.000000

 TETIRR: Found    446 inequivalent tetrahedra from     1920

 SYSTEM =  unknown system
 POSCAR =  Mg3Sb2

 Startparameter for this run:
   NWRITE =      2    write-flag & timer
   PREC   = normal    normal or accurate (medium, high low for compatibility)
   ISTART =      0    job   : 0-new  1-cont  2-samecut
   ICHARG =      2    charge: 1-file 2-atom 10-const
   ISPIN  =      1    spin polarized calculation?
   LNONCOLLINEAR =      F non collinear calculations
   LSORBIT =      F    spin-orbit coupling
   INIWAV =      1    electr: 0-lowe 1-rand  2-diag
   LASPH  =      F    aspherical Exc in radial PAW
   METAGGA=      F    non-selfconsistent MetaGGA calc.

 Electronic Relaxation 1
   ENCUT  =  400.0 eV  29.40 Ry    5.42 a.u.   7.50  7.50 11.86*2*pi/ulx,y,z
   ENINI  =  400.0     initial cutoff
   ENAUG  =  454.7 eV  augmentation charge cutoff
   NELM   =    300;   NELMIN=  2; NELMDL= -5     # of ELM steps
   EDIFF  = 0.1E-05   stopping-criterion for ELM
   LREAL  =      F    real-space projection
   NLSPLINE    = F    spline interpolate recip. space projectors
   LCOMPAT=      F    compatible to vasp.4.4
   GGA_COMPAT  = T    GGA compatible to vasp.4.4-vasp.4.6
   LMAXPAW     = -100 max onsite density
   LMAXMIX     =    2 max onsite mixed and CHGCAR
   VOSKOWN=      0    Vosko Wilk Nusair interpolation
   ROPT   =    0.00000   0.00000
 Ionic relaxation
   EDIFFG = 0.1E-04   stopping-criterion for IOM
   NSW    =      0    number of steps for IOM
   NBLOCK =      1;   KBLOCK =      1    inner block; outer block
   IBRION =     -1    ionic relax: 0-MD 1-quasi-New 2-CG
   NFREE  =      0    steps in history (QN), initial steepest desc. (CG)
   ISIF   =      2    stress and relaxation
   IWAVPR =     10    prediction:  0-non 1-charg 2-wave 3-comb
   ISYM   =      2    0-nonsym 1-usesym 2-fastsym
   LCORR  =      T    Harris-Foulkes like correction to forces

   POTIM  = 0.5000    time-step for ionic-motion
   TEIN   =    0.0    initial temperature
   TEBEG  =    0.0;   TEEND  =   0.0 temperature during run
   SMASS  =  -3.00    Nose mass-parameter (am)
   estimated Nose-frequenzy (Omega)   =  0.10E-29 period in steps =****** mass=  -0.483E-27a.u.
   SCALEE = 1.0000    scale energy and forces
   NPACO  =    256;   APACO  = 16.0  distance and # of slots for P.C.
   PSTRESS=    0.0 pullay stress

  Mass of Ions in am
   POMASS =  24.30121.75
  Ionic Valenz
   ZVAL   =   2.00  5.00
  Atomic Wigner-Seitz radii
  virtual crystal weights
   VCA    =   1.00  1.00
   NELECT =      16.0000    total number of electrons
   NUPDOWN=      -1.0000    fix difference up-down

 DOS related values:
   EMIN   =  10.00;   EMAX   =-10.00  energy-range for DOS
   EFERMI =   0.00
   ISMEAR =    -5;   SIGMA  =   0.20  broadening in eV -4-tet -1-fermi 0-gaus

 Electronic relaxation 2 (details)
   IALGO  =     38    algorithm
   LDIAG  =      T    sub-space diagonalisation (order eigenvalues)
   LSUBROT=      F    optimize rotation matrix (better conditioning)
   TURBO    =      0    0=normal 1=particle mesh
   IRESTART =      0    0=no restart 2=restart with 2 vectors
[...]
   0.00000000  0.00000000  0.00000000       0.003
   0.02718662  0.01569620  0.00000000       0.019
   0.05437324  0.03139241  0.00000000       0.019
   0.08155986  0.04708861  0.00000000       0.019
   0.10874648  0.06278481  0.00000000       0.009
   0.02718662  0.04708861  0.00000000       0.019
   0.05437324  0.06278481  0.00000000       0.037
   0.08155986  0.07848101  0.00000000       0.037
   0.05437324  0.09417722  0.00000000       0.019
   0.08155986  0.10987342  0.00000000       0.019
   0.00000000  0.00000000  0.02750790       0.006
   0.02718662  0.01569620  0.02750790       0.019
   0.05437324  0.03139241  0.02750790       0.019
   0.08155986  0.04708861  0.02750790       0.019
   0.10874648  0.06278481  0.02750790       0.019
  -0.08155986 -0.04708861  0.02750790       0.019
  -0.05437324 -0.03139241  0.02750790       0.019
  -0.02718662 -0.01569620  0.02750790       0.019
   0.02718662  0.04708861  0.02750790       0.037
   0.05437324  0.06278481  0.02750790       0.037
   0.08155986  0.07848101  0.02750790       0.037
   0.10874648  0.09417722  0.02750790       0.037
  -0.08155986 -0.01569620  0.02750790       0.037
   0.05437324  0.09417722  0.02750790       0.037
   0.08155986  0.10987342  0.02750790       0.037
   0.00000000  0.00000000  0.05501580       0.006
   0.02718662  0.01569620  0.05501580       0.019
   0.05437324  0.03139241  0.05501580       0.019
   0.08155986  0.04708861  0.05501580       0.019
   0.10874648  0.06278481  0.05501580       0.019
  -0.08155986 -0.04708861  0.05501580       0.019
  -0.05437324 -0.03139241  0.05501580       0.019
  -0.02718662 -0.01569620  0.05501580       0.019
   0.02718662  0.04708861  0.05501580       0.037
   0.05437324  0.06278481  0.05501580       0.037
   0.08155986  0.07848101  0.05501580       0.037
   0.10874648  0.09417722  0.05501580       0.037
  -0.08155986 -0.01569620  0.05501580       0.037
   0.05437324  0.09417722  0.05501580       0.037
   0.08155986  0.10987342  0.05501580       0.037

 k-points in reciprocal lattice and weights: K-Mesh Generated with KP-Resolved Value
   0.00000000  0.00000000  0.00000000       0.003
   0.12500000  0.00000000  0.00000000       0.019
   0.25000000  0.00000000  0.00000000       0.019
   0.37500000  0.00000000  0.00000000       0.019
   0.50000000  0.00000000  0.00000000       0.009
   0.12500000  0.12500000  0.00000000       0.019
   0.25000000  0.12500000  0.00000000       0.037
   0.37500000  0.12500000  0.00000000       0.037
   0.25000000  0.25000000  0.00000000       0.019
   0.37500000  0.25000000  0.00000000       0.019
   0.00000000  0.00000000  0.20000000       0.006
   0.12500000  0.00000000  0.20000000       0.019
   0.25000000  0.00000000  0.20000000       0.019
   0.37500000  0.00000000  0.20000000       0.019
   0.50000000  0.00000000  0.20000000       0.019
  -0.37500000 -0.00000000  0.20000000       0.019
  -0.25000000 -0.00000000  0.20000000       0.019
  -0.12500000 -0.00000000  0.20000000       0.019
   0.12500000  0.12500000  0.20000000       0.037
   0.25000000  0.12500000  0.20000000       0.037
   0.37500000  0.12500000  0.20000000       0.037
   0.50000000  0.12500000  0.20000000       0.037
  -0.37500000  0.12500000  0.20000000       0.037
   0.25000000  0.25000000  0.20000000       0.037
   0.37500000  0.25000000  0.20000000       0.037
   0.00000000  0.00000000  0.40000000       0.006
   0.12500000  0.00000000  0.40000000       0.019
   0.25000000  0.00000000  0.40000000       0.019
   0.37500000  0.00000000  0.40000000       0.019
   0.50000000  0.00000000  0.40000000       0.019
  -0.37500000 -0.00000000  0.40000000       0.019
  -0.25000000 -0.00000000  0.40000000       0.019
  -0.12500000 -0.00000000  0.40000000       0.019
   0.12500000  0.12500000  0.40000000       0.037
   0.25000000  0.12500000  0.40000000       0.037
   0.37500000  0.12500000  0.40000000       0.037
   0.50000000  0.12500000  0.40000000       0.037
  -0.37500000  0.12500000  0.40000000       0.037
   0.25000000  0.25000000  0.40000000       0.037
   0.37500000  0.25000000  0.40000000       0.037

 position of ions in fractional coordinates (direct lattice)
   0.00000000  0.00000000  0.00000000
   0.33333334  0.66666669  0.63203644
   0.66666663  0.33333331  0.36796356
   0.33333334  0.66666669  0.22537666
   0.66666663  0.33333331  0.77462337

 position of ions in cartesian coordinates  (Angst):
   0.00000000  0.00000000  0.00000000
  -0.00000000  2.65456996  4.59530835
   2.29892482  1.32728486  2.67533000
  -0.00000000  2.65456996  1.63863216
   2.29892482  1.32728486  5.63200640

 k-point  1 :   0.0000 0.0000 0.0000  plane waves:    2429
 k-point  2 :   0.1250 0.0000 0.0000  plane waves:    2413
 k-point  3 :   0.2500 0.0000 0.0000  plane waves:    2429
 k-point  4 :   0.3750 0.0000 0.0000  plane waves:    2427
 k-point  5 :   0.5000 0.0000 0.0000  plane waves:    2396
 k-point  6 :   0.1250 0.1250 0.0000  plane waves:    2429
 k-point  7 :   0.2500 0.1250 0.0000  plane waves:    2413
 k-point  8 :   0.3750 0.1250 0.0000  plane waves:    2412
 k-point  9 :   0.2500 0.2500 0.0000  plane waves:    2415
 k-point 10 :   0.3750 0.2500 0.0000  plane waves:    2424
 k-point 11 :   0.0000 0.0000 0.2000  plane waves:    2430
 k-point 12 :   0.1250 0.0000 0.2000  plane waves:    2428
 k-point 13 :   0.2500 0.0000 0.2000  plane waves:    2430
 k-point 14 :   0.3750 0.0000 0.2000  plane waves:    2416
 k-point 15 :   0.5000 0.0000 0.2000  plane waves:    2406
 k-point 16 :  -0.3750-0.0000 0.2000  plane waves:    2416
 k-point 17 :  -0.2500-0.0000 0.2000  plane waves:    2430
 k-point 18 :  -0.1250-0.0000 0.2000  plane waves:    2428
 k-point 19 :   0.1250 0.1250 0.2000  plane waves:    2424
 k-point 20 :   0.2500 0.1250 0.2000  plane waves:    2420
 k-point 21 :   0.3750 0.1250 0.2000  plane waves:    2405
 k-point 22 :   0.5000 0.1250 0.2000  plane waves:    2405
 k-point 23 :  -0.3750 0.1250 0.2000  plane waves:    2420
 k-point 24 :   0.2500 0.2500 0.2000  plane waves:    2411
 k-point 25 :   0.3750 0.2500 0.2000  plane waves:    2410
 k-point 26 :   0.0000 0.0000 0.4000  plane waves:    2424
 k-point 27 :   0.1250 0.0000 0.4000  plane waves:    2443
 k-point 28 :   0.2500 0.0000 0.4000  plane waves:    2434
 k-point 29 :   0.3750 0.0000 0.4000  plane waves:    2426
 k-point 30 :   0.5000 0.0000 0.4000  plane waves:    2400
 k-point 31 :  -0.3750-0.0000 0.4000  plane waves:    2426
 k-point 32 :  -0.2500-0.0000 0.4000  plane waves:    2434
 k-point 33 :  -0.1250-0.0000 0.4000  plane waves:    2443
 k-point 34 :   0.1250 0.1250 0.4000  plane waves:    2430
 k-point 35 :   0.2500 0.1250 0.4000  plane waves:    2426
 k-point 36 :   0.3750 0.1250 0.4000  plane waves:    2408
 k-point 37 :   0.5000 0.1250 0.4000  plane waves:    2408
 k-point 38 :  -0.3750 0.1250 0.4000  plane waves:    2426
 k-point 39 :   0.2500 0.2500 0.4000  plane waves:    2408
 k-point 40 :   0.3750 0.2500 0.4000  plane waves:    2393

 maximum and minimum number of plane-waves per node :       254      226

 maximum number of plane-waves:      2443
 maximum index in each direction:
   IXMAX=    7   IYMAX=    7   IZMAX=   11
   IXMIN=   -7   IYMIN=   -7   IZMIN=  -12

 parallel 3D FFT for wavefunctions:
    minimum data exchange during FFTs selected (reduces bandwidth)
 parallel 3D FFT for charge:
    minimum data exchange during FFTs selected (reduces bandwidth)

 Broyden mixing: mesh for mixing (old mesh)
   NGX = 15   NGY = 15   NGZ = 23
  (NGX  = 48   NGY  = 48   NGZ  = 72)
  gives a total of   5175 points

 initial charge density was supplied:
 charge density of overlapping atoms calculated
 number of electron      16.0000000 magnetization
 keeping initial charge density in first step

 Maximum index for augmentation-charges          371 (set IRDMAX)

 First call to EWALD:  gamma=   0.347
 Maximum number of real-space cells 3x 3x 2
 Maximum number of reciprocal cells 3x 3x 4

--------------------------------------- Iteration      1(   1)  ---------------------------------------

 BZINTS: Fermi energy:  8.815016; 16.000000 electrons
         Band energy:  46.841761;  BLOECHL correction: -0.297840

 eigenvalue-minimisations  :  1280
 total energy-change (2. order) : 0.3513878E+02  (-0.4343505E+03)
 number of electron      16.0000000 magnetization
 augmentation part       16.0000000 magnetization

 Free energy of the ion-electron system (eV)
  alpha Z        PSCENC =         5.24900307
  Ewald energy   TEWEN  =      -387.53429618
  -Hartree energ DENC   =       -23.13503979
  -exchange      EXHF   =         0.00000000
  -V(xc)+E(xc)   XCENC  =      -238.79456755
  PAW double counting   =       523.27902600     -259.77882247
  entropy T*S    EENTRO =         0.00000000
  eigenvalues    EBANDS =        46.84176089
  atomic energy  EATOM  =       369.01171218
  Solvation  Ediel_sol  =         0.00000000
  free energy    TOTEN  =        35.13877614 eV

  energy without entropy =       35.13877614  energy(sigma->0) =       35.13877614

[...]

 eigenvalue-minimisations  :  1632
 total energy-change (2. order) :-0.4763933E+02  (-0.4281866E+02)
 number of electron      16.0000000 magnetization
 augmentation part       16.0000000 magnetization

[...]

 Broyden mixing:
  rms(total) = 0.43560E+00    rms(broyden)= 0.43560E+00
  rms(prec ) = 0.69760E+00
  weight for this iteration     100.00

[...]

 eigenvalues of (default mixing * dielectric matrix)
  average eigenvalue GAMMA=   2.2327
  2.2327

[...]

 eigenvalue-minimisations  :  1712
 total energy-change (2. order) : 0.6798551E-04  (-0.5701838E-04)
 number of electron      15.9999995 magnetization
 augmentation part       -1.5366297 magnetization

[...]

 Broyden mixing:
  rms(total) = 0.75784E-03    rms(broyden)= 0.75784E-03
  rms(prec ) = 0.10700E-02
  weight for this iteration     100.00

 eigenvalues of (default mixing * dielectric matrix)
  average eigenvalue GAMMA=   1.7957
  2.9349  2.6940  1.6762  0.9939  1.3191  1.1562

[...]

--------------------------------------- Iteration      1(  12)  ---------------------------------------

[...]

 eigenvalue-minimisations  :  1728
 total energy-change (2. order) :-0.6225075E-06  (-0.3985699E-06)
 number of electron      15.9999995 magnetization
 augmentation part       -1.5369278 magnetization

 Free energy of the ion-electron system (eV)
  alpha Z        PSCENC =         5.24900307
  Ewald energy   TEWEN  =      -387.53429618
  -Hartree energ DENC   =       -29.73864870
  -exchange      EXHF   =         0.00000000
  -V(xc)+E(xc)   XCENC  =      -237.45162183
  PAW double counting   =       970.59368826     -707.31741603
  entropy T*S    EENTRO =         0.00000000
  eigenvalues    EBANDS =         2.54267506
  atomic energy  EATOM  =       369.01171218
  Solvation  Ediel_sol  =         0.00000000
  free energy    TOTEN  =       -14.64490419 eV

  energy without entropy =      -14.64490419  energy(sigma->0) =      -14.64490419

 average (electrostatic) potential at core
  the test charge radii are     1.0714  1.1712
  (the norm of the test charge is              1.0000)
       1 -38.5307       2 -37.8428       3 -37.8428       4 -87.6100       5 -87.6100

 E-fermi :   4.3588     XC(G=0):  -8.7341     alpha+bet : -9.2324

 k-point     1 :       0.0000    0.0000    0.0000
  band No.  band energies     occupation
      1      -5.8853      2.00000
      2      -4.6652      2.00000
      3      -0.5184      2.00000
      4       3.2636      2.00000
      5       3.2636      2.00000
      6       3.9565      2.00000
      7       3.9565      2.00000
      8       4.3505      2.00000
      9       5.3532      0.00000
     10       5.5213      0.00000
     11       7.3750      0.00000
     12       7.3750      0.00000
     13       8.1687      0.00000
     14       8.3807      0.00000
     15       8.3807      0.00000
     16       9.2928      0.00000

[...]

 k-point    40 :       0.3750    0.2500    0.4000
  band No.  band energies     occupation
      1      -4.5357      2.00000
      2      -4.4712      2.00000
      3      -0.1058      2.00000
      4       0.1147      2.00000
      5       0.6707      2.00000
      6       1.3549      2.00000
      7       3.0245      2.00000
      8       3.3178      2.00000
      9       5.8693      0.00000
     10       6.4020      0.00000
     11       6.5730      0.00000
     12       7.5267      0.00000
     13       8.2786      0.00000
     14       8.6820      0.00000
     15      10.0004      0.00000
     16      10.2143      0.00000

 soft charge-density along one line, spin component           1
         0         1         2         3         4         5         6         7         8         9
 total charge-density along one line

------------------------ aborting loop because EDIFF is reached ----------------------------------------

 total charge

# of ion       s       p       d       tot
    1        0.152   0.097   0.018   0.266
    2        0.183   0.130   0.022   0.334
    3        0.183   0.130   0.022   0.334
    4        1.121   1.404   0.012   2.536
    5        1.121   1.404   0.012   2.536
tot          2.759   3.163   0.086   6.008

  FORCE on cell =-STRESS in cart. coord.  units (eV):
  Direction    XX          YY          ZZ          XY          YZ          ZX
  Alpha Z     5.24900     5.24900     5.24900
  Ewald    -129.14694  -129.14692  -129.24091    -0.00001     0.00000     0.00000
  Hartree     9.44744     9.44744    10.84272     0.00000     0.00000     0.00000
  E(xc)     -55.96605   -55.96606   -55.73164    -0.00001    -0.00000     0.00000
  Local     -72.24620   -72.24624   -73.41392    -0.00002    -0.00000    -0.00000
  n-local   186.35167   189.85399   185.91519    -4.28077    -0.45088    -0.57982
  augment   -33.38461   -33.38458   -32.96363     0.00003    -0.00000     0.00000
  Kinetic    85.92636    89.92225    89.35988    -2.86416     0.30035    -0.44311
  Fock        0.00000     0.00000     0.00000     0.00000     0.00000     0.00000
  Total      -0.02023    -0.02023     0.01670     0.00000     0.00000    -0.00000
  in kB      -0.24352    -0.24352     0.20097     0.00000     0.00000    -0.00000

 VOLUME and BASIS-vectors are now :
  energy-cutoff  :      400.00
  volume of cell :      133.11
      direct lattice vectors                 reciprocal lattice vectors
     4.597849902  0.000000000  0.000000000     0.217492963  0.125569621  0.000000000
    -2.298924951  3.981854818  0.000000000     0.000000000  0.251139242  0.000000000
     0.000000000  0.000000000  7.270638344     0.000000000  0.000000000  0.137539505

  length of vectors
     4.597849902  4.597849902  7.270638344     0.251139242  0.251139242  0.137539505

 FORCES acting on ions
    electron-ion (+dipol)            ewald-force                    non-local-force                 convergence-correction
   -.127E-06 -.146E-14 0.577E-07   -.902E-06 -.217E-12 0.389E-06   0.000E+00 0.000E+00 0.000E+00   0.690E-09 0.952E-16 0.365E-07
   -.143E-05 0.167E-05 0.217E+01   -.167E-05 -.208E-05 -.230E+01   0.208E-16 0.000E+00 0.137E+00   0.218E-08 0.458E-09 0.156E-03
   -.370E-06 -.167E-05 -.217E+01   0.175E-05 0.208E-05 0.230E+01   -.208E-16 0.000E+00 -.137E+00   -.255E-08 -.458E-09 -.156E-03
   0.305E-06 -.138E-04 -.265E+01   -.171E-05 -.257E-05 0.752E+00   -.416E-16 0.000E+00 0.190E+01   0.236E-08 0.568E-08 -.614E-03
   0.233E-04 0.138E-04 0.265E+01   0.252E-05 0.257E-05 -.752E+00   0.139E-16 0.000E+00 -.190E+01   -.660E-08 -.568E-08 0.614E-03
   0.216E-04 0.257E-11 -.377E-04   0.260E-15 0.310E-15 0.355E-14   -.278E-16 0.000E+00 0.000E+00   -.392E-08 0.222E-13 0.225E-07

 POSITION                                       TOTAL-FORCE (eV/Angst)
      0.00000      0.00000      0.00000         0.000000      0.000000      0.000000
     -0.00000      2.65457      4.59531        -0.000000      0.000000      0.000896
      2.29892      1.32728      2.67533         0.000000      0.000000     -0.000896
     -0.00000      2.65457      1.63863         0.000000     -0.000000      0.000570
      2.29892      1.32728      5.63201        -0.000000      0.000000     -0.000570
    total drift:                                0.000022      0.000000     -0.000038

  FREE ENERGIE OF THE ION-ELECTRON SYSTEM (eV)
  free  energy   TOTEN  =       -14.64490419 eV

  energy  without entropy=      -14.64490419  energy(sigma->0) =      -14.64490419

 writing wavefunctions

 total charge

# of ion       s       p       d       tot
    1        0.152   0.097   0.018   0.266
    2        0.183   0.130   0.022   0.334
    3        0.183   0.130   0.022   0.334
    4        1.121   1.404   0.012   2.536
    5        1.121   1.404   0.012   2.536
tot          2.759   3.163   0.086   6.008

 BZINTS: Fermi energy:  4.358796; 16.000000 electrons
         Band energy:   2.542675;  BLOECHL correction:  0.000000