 vasp.5.4.4.18Apr17-6-g9f103f2a35 (build May 24 2018 15:12:59) complex

 executed on             LinuxIFC date 2021.02.16  09:58:51

 INCAR:
 POTCAR:    PAW_PBE Mg 13Apr2007
 POTCAR:    PAW_PBE Sb 06Sep2000
 POTCAR:    PAW_PBE Mg 13Apr2007
   VRHFIN =Mg: s2p0

   TITEL  = PAW_PBE Mg 13Apr2007
   POMASS =   24.305; ZVAL   =    2.000    mass and valenz
   ENMAX  =  126.143; ENMIN  =   94.607 eV

 POTCAR:    PAW_PBE Sb 06Sep2000
   VRHFIN =Sb: s2p3

   TITEL  = PAW_PBE Sb 06Sep2000
   POMASS =  121.750; ZVAL   =    5.000    mass and valenz
   ENMAX  =  172.069; ENMIN  =  129.052 eV

  PAW_PBE Mg 13Apr2007                  :
  PAW_PBE Sb 06Sep2000                  :

 POSCAR: Mg3Sb2
  positions in direct lattice
  velocities in cartesian coordinates
 exchange correlation table for  LEXCH =        8
   RHO(1)=    0.500       N(1)  =     2000
   RHO(2)=  100.500       N(2)  =     4000

 ion  position               nearest neighbor table
   1  0.000  0.000  0.000-   5 3.12   5 3.12   5 3.12   4 3.12   4 3.12   4 3.12
   2  0.333  0.667  0.632-   5 2.85   5 2.85   5 2.85   4 2.96   3 3.28   3 3.28   3 3.28
   3  0.667  0.333  0.368-   4 2.85   4 2.85   4 2.85   5 2.96   2 3.28   2 3.28   2 3.28
   4  0.333  0.667  0.225-   3 2.85   3 2.85   3 2.85   2 2.96   1 3.12   1 3.12   1 3.12
   5  0.667  0.333  0.775-   2 2.85   2 2.85   2 2.85   3 2.96   1 3.12   1 3.12   1 3.12

  LATTYP: Found a hexagonal cell.
 ALAT       =     4.5978499023
 C/A-ratio  =     1.5813126784

  Lattice vectors:

 A1 = (   4.5978499024,   0.0000000000,   0.0000000000)
 A2 = (  -2.2989249512,   3.9818548182,   0.0000000000)
 A3 = (   0.0000000000,   0.0000000000,   7.2706383437)

Analysis of symmetry for initial positions (statically):
 Subroutine PRICEL returns:
 Original cell was already a primitive cell.

 Routine SETGRP: Setting up the symmetry group for a
 hexagonal supercell.

 Subroutine GETGRP returns: Found 12 space group operations
 (whereof 12 operations were pure point group operations)
 out of a pool of 24 trial point group operations.

The static configuration has the point symmetry D_3d.

Analysis of symmetry for dynamics (positions and initial velocities):
 Subroutine PRICEL returns:
 Original cell was already a primitive cell.

 Routine SETGRP: Setting up the symmetry group for a
 hexagonal supercell.

 Subroutine GETGRP returns: Found 12 space group operations
 (whereof 12 operations were pure point group operations)
 out of a pool of 24 trial point group operations.

The dynamic configuration has the point symmetry D_3d.

 Subroutine INISYM returns: Found 12 space group operations
 (whereof 12 operations are pure point group operations),
 and found     1 'primitive' translations

 KPOINTS: K-Path Generated by VASPKIT.
  interpolating k-points between supplied coordinates
  k-points in reciprocal lattice
Space group operators:
 irot       det(A)        alpha          n_x          n_y          n_z        tau_x        tau_y        tau_z
    1     1.000000     0.000001     1.000000     0.000000     0.000000     0.000000     0.000000     0.000000
    2    -1.000000     0.000001     1.000000     0.000000     0.000000     0.000000     0.000000     0.000000
    3     1.000000   120.000000     0.000000     0.000000    -1.000000     0.000000     0.000000     0.000000
    4    -1.000000   120.000000     0.000000     0.000000    -1.000000     0.000000     0.000000     0.000000
    5     1.000000   120.000000     0.000000     0.000000     1.000000     0.000000     0.000000     0.000000
    6    -1.000000   120.000000     0.000000     0.000000     1.000000     0.000000     0.000000     0.000000
    7     1.000000   180.000000     1.000000     0.000000     0.000000     0.000000     0.000000     0.000000
    8    -1.000000   180.000000     1.000000     0.000000     0.000000     0.000000     0.000000     0.000000
    9     1.000000   180.000000     0.500000    -0.866025     0.000000     0.000000     0.000000     0.000000
   10    -1.000000   180.000000     0.500000    -0.866025     0.000000     0.000000     0.000000     0.000000
   11     1.000000   180.000000    -0.500000    -0.866025     0.000000     0.000000     0.000000     0.000000
   12    -1.000000   180.000000    -0.500000    -0.866025     0.000000     0.000000     0.000000     0.000000

 SYSTEM =
 POSCAR =  Mg3Sb2

 Startparameter for this run:
   NWRITE =      2    write-flag & timer
   PREC   = normal    normal or accurate (medium, high low for compatibility)
   ISTART =      0    job   : 0-new  1-cont  2-samecut
   ICHARG =     11    charge: 1-file 2-atom 10-const
   ISPIN  =      1    spin polarized calculation?
   LNONCOLLINEAR =      F non collinear calculations
   LSORBIT =      F    spin-orbit coupling
   INIWAV =      1    electr: 0-lowe 1-rand  2-diag
   LASPH  =      F    aspherical Exc in radial PAW
   METAGGA=      F    non-selfconsistent MetaGGA calc.

 Electronic Relaxation 1
   ENCUT  =  400.0 eV  29.40 Ry    5.42 a.u.   7.50  7.50 11.86*2*pi/ulx,y,z
   ENINI  =  400.0     initial cutoff
   ENAUG  =  454.7 eV  augmentation charge cutoff
   NELM   =    300;   NELMIN=  2; NELMDL= -5     # of ELM steps
   EDIFF  = 0.1E-05   stopping-criterion for ELM
   LREAL  =      F    real-space projection
   NLSPLINE    = F    spline interpolate recip. space projectors
   LCOMPAT=      F    compatible to vasp.4.4
   GGA_COMPAT  = T    GGA compatible to vasp.4.4-vasp.4.6
   LMAXPAW     = -100 max onsite density
   LMAXMIX     =    2 max onsite mixed and CHGCAR
   VOSKOWN=      0    Vosko Wilk Nusair interpolation
   ROPT   =    0.00000   0.00000
 Ionic relaxation
   EDIFFG = 0.1E-04   stopping-criterion for IOM
   NSW    =      0    number of steps for IOM
   NBLOCK =      1;   KBLOCK =      1    inner block; outer block
   IBRION =     -1    ionic relax: 0-MD 1-quasi-New 2-CG
   NFREE  =      0    steps in history (QN), initial steepest desc. (CG)
   ISIF   =      2    stress and relaxation
   IWAVPR =     10    prediction:  0-non 1-charg 2-wave 3-comb
   ISYM   =      2    0-nonsym 1-usesym 2-fastsym
   LCORR  =      T    Harris-Foulkes like correction to forces

   POTIM  = 0.5000    time-step for ionic-motion
   TEIN   =    0.0    initial temperature
   TEBEG  =    0.0;   TEEND  =   0.0 temperature during run
   SMASS  =  -3.00    Nose mass-parameter (am)
   estimated Nose-frequenzy (Omega)   =  0.10E-29 period in steps =****** mass=  -0.483E-27a.u.
   SCALEE = 1.0000    scale energy and forces
   NPACO  =    256;   APACO  = 16.0  distance and # of slots for P.C.
   PSTRESS=    0.0 pullay stress

  Mass of Ions in am
   POMASS =  24.30121.75
  Ionic Valenz
   ZVAL   =   2.00  5.00
  Atomic Wigner-Seitz radii
  virtual crystal weights
   VCA    =   1.00  1.00
   NELECT =      16.0000    total number of electrons
   NUPDOWN=      -1.0000    fix difference up-down

 DOS related values:
   EMIN   =  10.00;   EMAX   =-10.00  energy-range for DOS
   EFERMI =   0.00
   ISMEAR =     0;   SIGMA  =   0.05  broadening in eV -4-tet -1-fermi 0-gaus

 Electronic relaxation 2 (details)
   IALGO  =     38    algorithm
   LDIAG  =      T    sub-space diagonalisation (order eigenvalues)
   LSUBROT=      F    optimize rotation matrix (better conditioning)
   TURBO    =      0    0=normal 1=particle mesh
   IRESTART =      0    0=no restart 2=restart with 2 vectors
   NREBOOT  =      0    no. of reboots
   NMIN     =      0    reboot dimension
   EREF     =   0.00    reference energy to select bands
   IMIX   =      4    mixing-type and parameters
     AMIX     =   0.40;   BMIX     =  1.00
     AMIX_MAG =   1.60;   BMIX_MAG =  1.00
     AMIN     =   0.10
     WC   =   100.;   INIMIX=   1;  MIXPRE=   1;  MAXMIX= -45

 Intra band minimization:
   WEIMIN = 0.0000     energy-eigenvalue tresh-hold
   EBREAK =  0.10E-08  absolut break condition
   DEPER  =   0.30     relativ break condition

   TIME   =   0.40     timestep for ELM

  volume/ion in A,a.u.               =      26.62       179.65
  Fermi-wavevector in a.u.,A,eV,Ry     =   0.807937  1.526779  8.881358  0.652761
  Thomas-Fermi vector in A             =   1.916649

 Write flags
   LWAVE        =      F    write WAVECAR
   LDOWNSAMPLE  =      F    k-point downsampling of WAVECAR
   LCHARG       =      F    write CHGCAR
   LVTOT        =      F    write LOCPOT, total local potential
   LVHAR        =      F    write LOCPOT, Hartree potential only
   LELF         =      F    write electronic localiz. function (ELF)
   LORBIT       =     11    0 simple, 1 ext, 2 COOP (PROOUT), +10 PAW based schemes

 Dipole corrections
   LMONO  =      F    monopole corrections only (constant potential shift)
   LDIPOL =      F    correct potential (dipole corrections)
   IDIPOL =      0    1-x, 2-y, 3-z, 4-all directions
   EPSILON=  1.0000000 bulk dielectric constant

 Exchange correlation treatment:
   GGA     =    --    GGA type
   VOSKOWN=      0    Vosko Wilk Nusair interpolation
   LHFCALC =     F    Hartree Fock is set to
   LHFONE  =     F    Hartree Fock one center treatment
   AEXX    =    0.0000 exact exchange contribution

 Linear response parameters
   LEPSILON=     F    determine dielectric tensor
   LRPA    =     F    only Hartree local field effects (RPA)
   LNABLA  =     F    use nabla operator in PAW spheres
   LVEL    =     F    velocity operator in full k-point grid
   LINTERFAST=   F  fast interpolation
   KINTER  =     0    interpolate to denser k-point grid
   CSHIFT  =0.1000    complex shift for real part using Kramers Kronig
   OMEGAMAX=  -1.0    maximum frequency
   DEG_THRESHOLD= 0.2000000E-02 threshold for treating states as degnerate
   RTIME   =   -0.100 relaxation time in fs
  (WPLASMAI=    0.000 imaginary part of plasma frequency in eV, 0.658/RTIME)
   DFIELD  = 0.0000000 0.0000000 0.0000000 field for delta impulse in time

 Orbital magnetization related:
   ORBITALMAG=     F  switch on orbital magnetization
   LCHIMAG   =     F  perturbation theory with respect to B field
   DQ        =  0.001000  dq finite difference perturbation B field
   LLRAUG    =     F  two centre corrections for induced B field

 Static calculation
 charge density and potential remain constant during run
 non-spin polarized calculation
 Variant of blocked Davidson
 Davidson routine will perform the subspace rotation
 perform sub-space diagonalisation
    after iterative eigenvector-optimisation
 no mixing
 using additional bands          232
 reciprocal scheme for non local part
 use partial core corrections
 calculate Harris-corrections to forces
   (improved forces if not selfconsistent)
 use gradient corrections
 WARNING: stress and forces are not correct
  (second derivative of E(xc) not defined)
 use of overlap-Matrix (Vanderbilt PP)
 Gauss-broadening in eV      SIGMA  =   0.05

  energy-cutoff  :      400.00
  volume of cell :      133.11
      direct lattice vectors                 reciprocal lattice vectors
     4.597849902  0.000000000  0.000000000     0.217492963  0.125569621  0.000000000
    -2.298924951  3.981854818  0.000000000     0.000000000  0.251139242  0.000000000
     0.000000000  0.000000000  7.270638344     0.000000000  0.000000000  0.137539505

  length of vectors
[...]
 k-point ** :   0.0000 0.0000 0.2414  plane waves:    2442
 k-point ** :   0.0000 0.0000 0.2586  plane waves:    2430
 k-point ** :   0.0000 0.0000 0.2759  plane waves:    2430
 k-point ** :   0.0000 0.0000 0.2931  plane waves:    2430
 k-point ** :   0.0000 0.0000 0.3103  plane waves:    2430
 k-point ** :   0.0000 0.0000 0.3276  plane waves:    2430
 k-point ** :   0.0000 0.0000 0.3448  plane waves:    2424
 k-point ** :   0.0000 0.0000 0.3621  plane waves:    2424
 k-point ** :   0.0000 0.0000 0.3793  plane waves:    2424
 k-point ** :   0.0000 0.0000 0.3966  plane waves:    2424
 k-point ** :   0.0000 0.0000 0.4138  plane waves:    2412
 k-point ** :   0.0000 0.0000 0.4310  plane waves:    2406
 k-point ** :   0.0000 0.0000 0.4483  plane waves:    2412
 k-point ** :   0.0000 0.0000 0.4655  plane waves:    2412
 k-point ** :   0.0000 0.0000 0.4828  plane waves:    2418
 k-point ** :   0.0000 0.0000 0.5000  plane waves:    2424
 k-point ** :   0.0000 0.0000 0.5000  plane waves:    2424
 k-point ** :   0.0172 0.0000 0.5000  plane waves:    2416
 k-point ** :   0.0345 0.0000 0.5000  plane waves:    2410
 k-point ** :   0.0517 0.0000 0.5000  plane waves:    2414
 k-point ** :   0.0690 0.0000 0.5000  plane waves:    2418
 k-point ** :   0.0862 0.0000 0.5000  plane waves:    2430
 k-point ** :   0.1034 0.0000 0.5000  plane waves:    2434
 k-point ** :   0.1207 0.0000 0.5000  plane waves:    2440
 k-point ** :   0.1379 0.0000 0.5000  plane waves:    2436
 k-point ** :   0.1552 0.0000 0.5000  plane waves:    2428
 k-point ** :   0.1724 0.0000 0.5000  plane waves:    2428
 k-point ** :   0.1897 0.0000 0.5000  plane waves:    2432
 k-point ** :   0.2069 0.0000 0.5000  plane waves:    2434
 k-point ** :   0.2241 0.0000 0.5000  plane waves:    2438
 k-point ** :   0.2414 0.0000 0.5000  plane waves:    2442
 k-point ** :   0.2586 0.0000 0.5000  plane waves:    2444
 k-point ** :   0.2759 0.0000 0.5000  plane waves:    2436
 k-point ** :   0.2931 0.0000 0.5000  plane waves:    2428
 k-point ** :   0.3103 0.0000 0.5000  plane waves:    2428
 k-point ** :   0.3276 0.0000 0.5000  plane waves:    2428
 k-point ** :   0.3448 0.0000 0.5000  plane waves:    2428
 k-point ** :   0.3621 0.0000 0.5000  plane waves:    2438
 k-point ** :   0.3793 0.0000 0.5000  plane waves:    2442
 k-point ** :   0.3966 0.0000 0.5000  plane waves:    2422
 k-point ** :   0.4138 0.0000 0.5000  plane waves:    2426
 k-point ** :   0.4310 0.0000 0.5000  plane waves:    2426
 k-point ** :   0.4483 0.0000 0.5000  plane waves:    2416
 k-point ** :   0.4655 0.0000 0.5000  plane waves:    2412
 k-point ** :   0.4828 0.0000 0.5000  plane waves:    2402
 k-point ** :   0.5000 0.0000 0.5000  plane waves:    2392
 k-point ** :   0.5000 0.0000 0.5000  plane waves:    2392
 k-point ** :   0.4943 0.0115 0.5000  plane waves:    2392
 k-point ** :   0.4885 0.0230 0.5000  plane waves:    2396
 k-point ** :   0.4828 0.0345 0.5000  plane waves:    2396
 k-point ** :   0.4770 0.0460 0.5000  plane waves:    2400
 k-point ** :   0.4713 0.0575 0.5000  plane waves:    2412
 k-point ** :   0.4655 0.0690 0.5000  plane waves:    2414
 k-point ** :   0.4598 0.0805 0.5000  plane waves:    2406
 k-point ** :   0.4540 0.0920 0.5000  plane waves:    2410
[...]
 k-point ** :   0.1609 0.1609 0.5000  plane waves:    2426
 k-point ** :   0.1494 0.1494 0.5000  plane waves:    2434
 k-point ** :   0.1379 0.1379 0.5000  plane waves:    2434
 k-point ** :   0.1264 0.1264 0.5000  plane waves:    2440
 k-point ** :   0.1149 0.1149 0.5000  plane waves:    2452
 k-point ** :   0.1034 0.1034 0.5000  plane waves:    2452
 k-point ** :   0.0920 0.0920 0.5000  plane waves:    2450
 k-point ** :   0.0805 0.0805 0.5000  plane waves:    2444
 k-point ** :   0.0690 0.0690 0.5000  plane waves:    2436
 k-point ** :   0.0575 0.0575 0.5000  plane waves:    2440
 k-point ** :   0.0460 0.0460 0.5000  plane waves:    2436
 k-point ** :   0.0345 0.0345 0.5000  plane waves:    2424
 k-point ** :   0.0230 0.0230 0.5000  plane waves:    2412
 k-point ** :   0.0115 0.0115 0.5000  plane waves:    2416
 k-point ** :   0.0000 0.0000 0.5000  plane waves:    2424

 maximum and minimum number of plane-waves per node :       259      220

 maximum number of plane-waves:      2452
 maximum index in each direction:
   IXMAX=    7   IYMAX=    7   IZMAX=   11
   IXMIN=   -7   IYMIN=   -7   IZMIN=  -12

 parallel 3D FFT for wavefunctions:
    minimum data exchange during FFTs selected (reduces bandwidth)
 parallel 3D FFT for charge:
    minimum data exchange during FFTs selected (reduces bandwidth)

 initial charge density was supplied:
 number of electron      15.9999995 magnetization
 keeping initial charge density in first step

 Maximum index for augmentation-charges          371 (set IRDMAX)

 First call to EWALD:  gamma=   0.347
 Maximum number of real-space cells 3x 3x 2
 Maximum number of reciprocal cells 3x 3x 4

--------------------------------------- Iteration      1(   1)  ---------------------------------------

 eigenvalue-minimisations  :100800
 total energy-change (2. order) : 0.4685473E+02  (-0.1492750E+03)
 number of electron      15.9999995 magnetization
 augmentation part       15.9999995 magnetization

 Free energy of the ion-electron system (eV)
  alpha Z        PSCENC =         5.24900307
  Ewald energy   TEWEN  =      -387.53429618
  -Hartree energ DENC   =       -29.73936199
  -exchange      EXHF   =         0.00000000
  -V(xc)+E(xc)   XCENC  =      -237.45171177
  PAW double counting   =       970.18557498     -706.90920100
  entropy T*S    EENTRO =        -0.00213878
  eigenvalues    EBANDS =        64.04514757
  atomic energy  EATOM  =       369.01171218
  Solvation  Ediel_sol  =         0.00000000
  free energy    TOTEN  =        46.85472807 eV

  energy without entropy =       46.85686685  energy(sigma->0) =       46.85579746

[...]

 eigenvalue-minimisations  :122376
 total energy-change (2. order) :-0.5675042E+02  (-0.4977305E+02)
 number of electron      15.9999995 magnetization
 augmentation part       15.9999995 magnetization

[...]

--------------------------------------- Iteration      1(   6)  ---------------------------------------

 eigenvalue-minimisations  :120256
 total energy-change (2. order) :-0.1342903E-07  (-0.1365846E-07)
 number of electron      15.9999995 magnetization
 augmentation part       15.9999995 magnetization

 Free energy of the ion-electron system (eV)
  alpha Z        PSCENC =         5.24900307
  Ewald energy   TEWEN  =      -387.53429618
  -Hartree energ DENC   =       -29.73936199
  -exchange      EXHF   =         0.00000000
  -V(xc)+E(xc)   XCENC  =      -237.45171177
  PAW double counting   =       970.18557498     -706.90920100
  entropy T*S    EENTRO =        -0.00000213
  eigenvalues    EBANDS =         4.75583474
  atomic energy  EATOM  =       369.01171218
  Solvation  Ediel_sol  =         0.00000000
  free energy    TOTEN  =       -12.43244810 eV

  energy without entropy =      -12.43244597  energy(sigma->0) =      -12.43244704

 average (electrostatic) potential at core
  the test charge radii are     1.0714  1.1712
  (the norm of the test charge is              1.0000)
       1 -38.5306       2 -37.8421       3 -37.8421       4 -87.6100       5 -87.6100

 E-fermi :   4.4780     XC(G=0):  -8.7339     alpha+bet : -9.2324

 k-point     1 :       0.0000    0.0000    0.0000
  band No.  band energies     occupation
      1      -5.8853      2.00000
      2      -4.6652      2.00000
      3      -0.5183      2.00000
      4       3.2636      2.00000
      5       3.2636      2.00000
      6       3.9566      2.00000
      7       3.9566      2.00000
      8       4.3505      1.99969
      9       5.3534      0.00000
     10       5.5214      0.00000
     11       7.3751      0.00000
     12       7.3751      0.00000
     13       8.1688      0.00000
     14       8.3807      0.00000
     15       8.3807      0.00000
     16       9.2923      0.00000
     17       9.3607      0.00000
     18       9.3607      0.00000
     19       9.8143      0.00000
     20       9.8143      0.00000
     21      10.0791      0.00000
     22      10.8786      0.00000
     23      11.1377      0.00000
     24      15.2320      0.00000
     25      15.2320      0.00000
     26      16.0434      0.00000
     27      16.0434      0.00000
     28      16.2945      0.00000
     29      16.3087      0.00000
     30      16.7107      0.00000
     31      16.7107      0.00000
     32      17.2071      0.00000
     33      17.2071      0.00000
     34      19.2638      0.00000
     35      19.4053      0.00000
     36      21.3303      0.00000
     37      21.6577      0.00000
     38      22.3549      0.00000
     39      22.3549      0.00000
     40      23.2330      0.00000
     41      23.5180      0.00000
     42      23.5180      0.00000
     43      23.7489      0.00000
     44      23.7489      0.00000
     45      24.1795      0.00000
     46      24.1795      0.00000
     47      24.4672      0.00000
     48      24.6240      0.00000
     49      25.2409      0.00000
     50      25.5594      0.00000
     51      25.5594      0.00000
     52      25.7381      0.00000
     53      25.7381      0.00000
     54      26.3324      0.00000
     55      26.3324      0.00000
     56      27.5877      0.00000
     57      28.3992      0.00000
     58      28.4647      0.00000
     59      28.4647      0.00000
     60      28.6285      0.00000
[...]
    226      72.9889      0.00000
    227      73.2095      0.00000
    228      73.2544      0.00000
    229      73.4370      0.00000
    230      73.4552      0.00000
    231      73.5354      0.00000
    232      73.5597      0.00000
    233      74.0055      0.00000
    234      74.0204      0.00000
    235      74.2157      0.00000
    236      74.3995      0.00000
    237      74.6293      0.00000
    238      74.9158      0.00000
    239      75.0099      0.00000
    240      75.2254      0.00000

[...]

 k-point   210 :       0.0000    0.0000    0.5000
  band No.  band energies     occupation
      1      -5.4908      2.00000
      2      -5.2825      2.00000
      3       1.2907      2.00000
      4       1.3626      2.00000
      5       3.5746      2.00000
      6       3.5746      2.00000
      7       3.6248      2.00000
      8       3.6248      2.00000
      9       6.0805      0.00000
     10       6.1342      0.00000
     11       7.0272      0.00000
     12       7.0272      0.00000
     13       7.8868      0.00000
     14       7.8868      0.00000
     15       8.1525      0.00000
     16       8.7121      0.00000
     17      10.7690      0.00000
     18      10.8354      0.00000
     19      10.8355      0.00000
     20      11.0700      0.00000
     21      11.6898      0.00000
     22      11.6899      0.00000
     23      12.5111      0.00000
     24      12.5111      0.00000
     25      12.5835      0.00000
     26      12.5835      0.00000
     27      13.0087      0.00000
     28      14.6641      0.00000
     29      15.6995      0.00000
     30      16.2048      0.00000
     31      20.5520      0.00000
     32      20.5520      0.00000
     33      21.0933      0.00000
     34      21.0933      0.00000
     35      21.3807      0.00000
     36      21.5998      0.00000
     37      21.7088      0.00000
     38      21.7088      0.00000
     39      22.2273      0.00000
     40      22.2273      0.00000
     41      23.1448      0.00000
     42      23.1448      0.00000
     43      23.3243      0.00000
     44      23.6574      0.00000
     45      23.9012      0.00000
     46      24.0686      0.00000
     47      24.0686      0.00000
     48      24.3628      0.00000
     49      24.3628      0.00000
     50      24.4057      0.00000
     51      24.4057      0.00000
     52      24.5467      0.00000
     53      26.6698      0.00000
     54      26.6698      0.00000
     55      26.8304      0.00000
     56      26.9179      0.00000
     57      26.9179      0.00000
     58      27.2871      0.00000
     59      27.3054      0.00000
     60      27.3054      0.00000
[...]
    226      71.7314      0.00000
    227      71.7314      0.00000
    228      71.7833      0.00000
    229      72.4033      0.00000
    230      72.8907      0.00000
    231      72.8916      0.00000
    232      73.5000      0.00000
    233      74.3727      0.00000
    234      74.7071      0.00000
    235      75.1293      0.00000
    236      75.2306      0.00000
    237      75.3785      0.00000
    238      75.5915      0.00000
    239      75.7495      0.00000
    240      76.3047      0.00000

 soft charge-density along one line, spin component           1
         0         1         2         3         4         5         6         7         8         9
 total charge-density along one line

------------------------ aborting loop because EDIFF is reached ----------------------------------------

 total charge

# of ion       s       p       d       tot
    1        0.146   0.090   0.019   0.255
    2        0.167   0.124   0.027   0.317
    3        0.167   0.124   0.027   0.317
    4        1.101   1.502   0.010   2.612
    5        1.101   1.502   0.010   2.612
tot          2.681   3.341   0.093   6.114

  FORCE on cell =-STRESS in cart. coord.  units (eV):
  Direction    XX          YY          ZZ          XY          YZ          ZX
  Alpha Z     5.24900     5.24900     5.24900
  Ewald    -129.14694  -129.14692  -129.24091    -0.00001     0.00000     0.00000
  Hartree    10.14722    10.14722    12.34938     0.00000     0.00000     0.00000
  E(xc)     -56.31974   -56.31975   -55.62257    -0.00001    -0.00000     0.00000
  Local     -76.64694   -76.64698   -74.20537    -0.00003    -0.00000    -0.00000
  n-local   191.35831   193.57775   186.43195    -3.42460    -0.06822    -0.31354
  augment   -33.98199   -33.98196   -32.58556     0.00003    -0.00000    -0.00000
  Kinetic    91.50607    94.33374    90.02555    -2.32944     0.07904    -0.05537
  Fock        0.00000     0.00000     0.00000     0.00000     0.00000     0.00000
  Total       4.68855     4.68855     2.40147     0.00000     0.00000     0.00000
  in kB      56.43342    56.43342    28.90510     0.00000     0.00000     0.00000

 VOLUME and BASIS-vectors are now :
  energy-cutoff  :      400.00
  volume of cell :      133.11
      direct lattice vectors                 reciprocal lattice vectors
     4.597849902  0.000000000  0.000000000     0.217492963  0.125569621  0.000000000
    -2.298924951  3.981854818  0.000000000     0.000000000  0.251139242  0.000000000
     0.000000000  0.000000000  7.270638344     0.000000000  0.000000000  0.137539505

  length of vectors
     4.597849902  4.597849902  7.270638344     0.251139242  0.251139242  0.137539505

 FORCES acting on ions
    electron-ion (+dipol)            ewald-force                    non-local-force                 convergence-correction
   -.128E-06 0.326E-14 0.590E-07   -.902E-06 -.217E-12 0.389E-06   0.331E-23 0.000E+00 0.000E+00   0.261E-06 0.129E-12 0.183E-06
   -.155E-05 0.174E-05 0.188E+01   -.167E-05 -.208E-05 -.230E+01   -.347E-17 0.000E+00 0.458E+00   0.117E-04 -.616E-05 -.273E-01
   -.316E-06 -.174E-05 -.188E+01   0.175E-05 0.208E-05 0.230E+01   -.104E-16 0.000E+00 -.458E+00   -.117E-04 0.616E-05 0.273E-01
   0.289E-06 -.137E-04 -.231E+01   -.171E-05 -.257E-05 0.752E+00   0.416E-16 0.000E+00 0.165E+01   0.687E-04 -.369E-04 0.271E-01
   0.231E-04 0.137E-04 0.231E+01   0.252E-05 0.257E-05 -.752E+00   -.694E-17 0.000E+00 -.165E+01   -.719E-04 0.369E-04 -.271E-01
   0.214E-04 0.269E-11 -.391E-04   0.260E-15 0.310E-15 0.355E-14   0.208E-16 0.000E+00 0.000E+00   -.290E-05 0.127E-11 0.447E-05

 POSITION                                       TOTAL-FORCE (eV/Angst)
      0.00000      0.00000      0.00000         0.000000      0.000000     -0.000000
     -0.00000      2.65457      4.59531         0.000000     -0.000000      0.005630
      2.29892      1.32728      2.67533         0.000000      0.000000     -0.005630
     -0.00000      2.65457      1.63863        -0.000000      0.000000      0.112768
      2.29892      1.32728      5.63201         0.000000     -0.000000     -0.112768
    total drift:                                0.000019      0.000000     -0.000035

  FREE ENERGIE OF THE ION-ELECTRON SYSTEM (eV)
  free  energy   TOTEN  =       -12.43244810 eV

  energy  without entropy=      -12.43244597  energy(sigma->0) =      -12.43244704

 total charge

# of ion       s       p       d       tot
    1        0.146   0.090   0.019   0.255
    2        0.167   0.124   0.027   0.317
    3        0.167   0.124   0.027   0.317
    4        1.101   1.502   0.010   2.612
    5        1.101   1.502   0.010   2.612
tot          2.681   3.341   0.093   6.114