 vasp.5.4.4.18Apr17-6-g9f103f2a35 (build May 24 2018 15:12:59) complex

 executed on             LinuxIFC date 2021.02.16  10:41:45

 INCAR:
 POTCAR:    PAW_PBE Mg 13Apr2007
 POTCAR:    PAW_PBE Sb 06Sep2000
 POTCAR:    PAW_PBE Mg 13Apr2007
   VRHFIN =Mg: s2p0

   TITEL  = PAW_PBE Mg 13Apr2007
   POMASS =   24.305; ZVAL   =    2.000    mass and valenz
   ENMAX  =  126.143; ENMIN  =   94.607 eV

 POTCAR:    PAW_PBE Sb 06Sep2000
   VRHFIN =Sb: s2p3

   TITEL  = PAW_PBE Sb 06Sep2000
   POMASS =  121.750; ZVAL   =    5.000    mass and valenz
   ENMAX  =  172.069; ENMIN  =  129.052 eV

  PAW_PBE Mg 13Apr2007                  :
  PAW_PBE Sb 06Sep2000                  :

 POSCAR: Mg3Sb2
  positions in direct lattice
  velocities in cartesian coordinates
 exchange correlation table for  LEXCH =        8
   RHO(1)=    0.500       N(1)  =     2000
   RHO(2)=  100.500       N(2)  =     4000

 ion  position               nearest neighbor table
   1  0.000  0.000  0.000-   5 3.12   5 3.12   5 3.12   4 3.12   4 3.12   4 3.12
   2  0.333  0.667  0.632-   5 2.85   5 2.85   5 2.85   4 2.96   3 3.28   3 3.28   3 3.28
   3  0.667  0.333  0.368-   4 2.85   4 2.85   4 2.85   5 2.96   2 3.28   2 3.28   2 3.28
   4  0.333  0.667  0.225-   3 2.85   3 2.85   3 2.85   2 2.96   1 3.12   1 3.12   1 3.12
   5  0.667  0.333  0.775-   2 2.85   2 2.85   2 2.85   3 2.96   1 3.12   1 3.12   1 3.12

  LATTYP: Found a hexagonal cell.
 ALAT       =     4.5978499023
 C/A-ratio  =     1.5813126784

  Lattice vectors:

 A1 = (   4.5978499024,   0.0000000000,   0.0000000000)
 A2 = (  -2.2989249512,   3.9818548182,   0.0000000000)
 A3 = (   0.0000000000,   0.0000000000,   7.2706383437)

Analysis of symmetry for initial positions (statically):
 Subroutine PRICEL returns:
 Original cell was already a primitive cell.

 Routine SETGRP: Setting up the symmetry group for a
 hexagonal supercell.

 Subroutine GETGRP returns: Found 12 space group operations
 (whereof 12 operations were pure point group operations)
 out of a pool of 24 trial point group operations.

The static configuration has the point symmetry D_3d.

Analysis of symmetry for dynamics (positions and initial velocities):
 Subroutine PRICEL returns:
 Original cell was already a primitive cell.

 Routine SETGRP: Setting up the symmetry group for a
 hexagonal supercell.

 Subroutine GETGRP returns: Found 12 space group operations
 (whereof 12 operations were pure point group operations)
 out of a pool of 24 trial point group operations.

The dynamic configuration has the point symmetry D_3d.

 Subroutine INISYM returns: Found 12 space group operations
 (whereof 12 operations are pure point group operations),
 and found     1 'primitive' translations

 KPOINTS: Automatically generated mesh
  k-points in reciprocal lattice
Space group operators:
 irot       det(A)        alpha          n_x          n_y          n_z        tau_x        tau_y        tau_z
    1     1.000000     0.000001     1.000000     0.000000     0.000000     0.000000     0.000000     0.000000
    2    -1.000000     0.000001     1.000000     0.000000     0.000000     0.000000     0.000000     0.000000
    3     1.000000   120.000000     0.000000     0.000000    -1.000000     0.000000     0.000000     0.000000
    4    -1.000000   120.000000     0.000000     0.000000    -1.000000     0.000000     0.000000     0.000000
    5     1.000000   120.000000     0.000000     0.000000     1.000000     0.000000     0.000000     0.000000
    6    -1.000000   120.000000     0.000000     0.000000     1.000000     0.000000     0.000000     0.000000
    7     1.000000   180.000000     1.000000     0.000000     0.000000     0.000000     0.000000     0.000000
    8    -1.000000   180.000000     1.000000     0.000000     0.000000     0.000000     0.000000     0.000000
    9     1.000000   180.000000     0.500000    -0.866025     0.000000     0.000000     0.000000     0.000000
   10    -1.000000   180.000000     0.500000    -0.866025     0.000000     0.000000     0.000000     0.000000
   11     1.000000   180.000000    -0.500000    -0.866025     0.000000     0.000000     0.000000     0.000000
   12    -1.000000   180.000000    -0.500000    -0.866025     0.000000     0.000000     0.000000     0.000000

 SYSTEM =  unknown system
 POSCAR =  Mg3Sb2

 Startparameter for this run:
   NWRITE =      2    write-flag & timer
   PREC   = normal    normal or accurate (medium, high low for compatibility)
   ISTART =      0    job   : 0-new  1-cont  2-samecut
   ICHARG =      2    charge: 1-file 2-atom 10-const
   ISPIN  =      1    spin polarized calculation?
   LNONCOLLINEAR =      F non collinear calculations
   LSORBIT =      F    spin-orbit coupling
   INIWAV =      1    electr: 0-lowe 1-rand  2-diag
   LASPH  =      F    aspherical Exc in radial PAW
   METAGGA=      F    non-selfconsistent MetaGGA calc.

 Electronic Relaxation 1
   ENCUT  =  400.0 eV  29.40 Ry    5.42 a.u.   7.50  7.50 11.86*2*pi/ulx,y,z
   ENINI  =  400.0     initial cutoff
   ENAUG  =  454.7 eV  augmentation charge cutoff
   NELM   =    300;   NELMIN=  2; NELMDL= -5     # of ELM steps
   EDIFF  = 0.1E-05   stopping-criterion for ELM
   LREAL  =      F    real-space projection
   NLSPLINE    = F    spline interpolate recip. space projectors
   LCOMPAT=      F    compatible to vasp.4.4
   GGA_COMPAT  = T    GGA compatible to vasp.4.4-vasp.4.6
   LMAXPAW     = -100 max onsite density
   LMAXMIX     =    2 max onsite mixed and CHGCAR
   VOSKOWN=      0    Vosko Wilk Nusair interpolation
   ROPT   =    0.00000   0.00000
 Ionic relaxation
   EDIFFG = 0.1E-04   stopping-criterion for IOM
   NSW    =      0    number of steps for IOM
   NBLOCK =      1;   KBLOCK =      1    inner block; outer block
   IBRION =     -1    ionic relax: 0-MD 1-quasi-New 2-CG
   NFREE  =      0    steps in history (QN), initial steepest desc. (CG)
   ISIF   =      2    stress and relaxation
   IWAVPR =     10    prediction:  0-non 1-charg 2-wave 3-comb
   ISYM   =      2    0-nonsym 1-usesym 2-fastsym
   LCORR  =      T    Harris-Foulkes like correction to forces

   POTIM  = 0.5000    time-step for ionic-motion
   TEIN   =    0.0    initial temperature
   TEBEG  =    0.0;   TEEND  =   0.0 temperature during run
   SMASS  =  -3.00    Nose mass-parameter (am)
   estimated Nose-frequenzy (Omega)   =  0.10E-29 period in steps =****** mass=  -0.483E-27a.u.
   SCALEE = 1.0000    scale energy and forces
   NPACO  =    256;   APACO  = 16.0  distance and # of slots for P.C.
   PSTRESS=    0.0 pullay stress

  Mass of Ions in am
   POMASS =  24.30121.75
  Ionic Valenz
   ZVAL   =   2.00  5.00
  Atomic Wigner-Seitz radii
  virtual crystal weights
   VCA    =   1.00  1.00
   NELECT =      16.0000    total number of electrons
   NUPDOWN=      -1.0000    fix difference up-down

 DOS related values:
   EMIN   =  10.00;   EMAX   =-10.00  energy-range for DOS
   EFERMI =   0.00
   ISMEAR =    -5;   SIGMA  =   0.20  broadening in eV -4-tet -1-fermi 0-gaus

 Electronic relaxation 2 (details)
   IALGO  =     38    algorithm
   LDIAG  =      T    sub-space diagonalisation (order eigenvalues)
   LSUBROT=      F    optimize rotation matrix (better conditioning)
   TURBO    =      0    0=normal 1=particle mesh
   IRESTART =      0    0=no restart 2=restart with 2 vectors
   NREBOOT  =      0    no. of reboots
   NMIN     =      0    reboot dimension
   EREF     =   0.00    reference energy to select bands
   IMIX   =      4    mixing-type and parameters
     AMIX     =   0.40;   BMIX     =  1.00
     AMIX_MAG =   1.60;   BMIX_MAG =  1.00
     AMIN     =   0.10
     WC   =   100.;   INIMIX=   1;  MIXPRE=   1;  MAXMIX= -45

 Intra band minimization:
   WEIMIN = 0.0000     energy-eigenvalue tresh-hold
   EBREAK =  0.16E-07  absolut break condition
   DEPER  =   0.30     relativ break condition

   TIME   =   0.40     timestep for ELM

  volume/ion in A,a.u.               =      26.62       179.65
  Fermi-wavevector in a.u.,A,eV,Ry     =   0.807937  1.526779  8.881358  0.652761
  Thomas-Fermi vector in A             =   1.916649

 Write flags
   LWAVE        =      T    write WAVECAR
   LDOWNSAMPLE  =      F    k-point downsampling of WAVECAR
   LCHARG       =      T    write CHGCAR
   LVTOT        =      F    write LOCPOT, total local potential
   LVHAR        =      F    write LOCPOT, Hartree potential only
   LELF         =      F    write electronic localiz. function (ELF)
   LORBIT       =      0    0 simple, 1 ext, 2 COOP (PROOUT), +10 PAW based schemes

 Dipole corrections
   LMONO  =      F    monopole corrections only (constant potential shift)
   LDIPOL =      F    correct potential (dipole corrections)
   IDIPOL =      0    1-x, 2-y, 3-z, 4-all directions
   EPSILON=  1.0000000 bulk dielectric constant

 Exchange correlation treatment:
   GGA     =    --    GGA type
   VOSKOWN=      0    Vosko Wilk Nusair interpolation
   LHFCALC =     F    Hartree Fock is set to
   LHFONE  =     F    Hartree Fock one center treatment
   AEXX    =    0.0000 exact exchange contribution

 Linear response parameters
   LEPSILON=     F    determine dielectric tensor
   LRPA    =     F    only Hartree local field effects (RPA)
   LNABLA  =     F    use nabla operator in PAW spheres
   LVEL    =     F    velocity operator in full k-point grid
   LINTERFAST=   F  fast interpolation
   KINTER  =     0    interpolate to denser k-point grid
   CSHIFT  =0.1000    complex shift for real part using Kramers Kronig
   OMEGAMAX=  -1.0    maximum frequency
   DEG_THRESHOLD= 0.2000000E-02 threshold for treating states as degnerate
   RTIME   =   -0.100 relaxation time in fs
  (WPLASMAI=    0.000 imaginary part of plasma frequency in eV, 0.658/RTIME)
   DFIELD  = 0.0000000 0.0000000 0.0000000 field for delta impulse in time

 Orbital magnetization related:
   ORBITALMAG=     F  switch on orbital magnetization
   LCHIMAG   =     F  perturbation theory with respect to B field
   DQ        =  0.001000  dq finite difference perturbation B field
   LLRAUG    =     F  two centre corrections for induced B field

 Static calculation
 charge density and potential will be updated during run
 non-spin polarized calculation
 Variant of blocked Davidson
 Davidson routine will perform the subspace rotation
 perform sub-space diagonalisation
    after iterative eigenvector-optimisation
 modified Broyden-mixing scheme, WC =      100.0
 initial mixing is a Kerker type mixing with AMIX =  0.4000 and BMIX =      1.0000
 Hartree-type preconditioning will be used
 using additional bands            8
 reciprocal scheme for non local part
 use partial core corrections
 calculate Harris-corrections to forces
   (improved forces if not selfconsistent)
 use gradient corrections
 use of overlap-Matrix (Vanderbilt PP)
 Fermi weights with tetrahedron method with Bloechl corrections

  energy-cutoff  :      400.00
  volume of cell :      133.11
      direct lattice vectors                 reciprocal lattice vectors
     4.597849902  0.000000000  0.000000000     0.217492963  0.125569621  0.000000000
    -2.298924951  3.981854818  0.000000000     0.000000000  0.251139242  0.000000000
     0.000000000  0.000000000  7.270638344     0.000000000  0.000000000  0.137539505

[...]
 k-point 25 :   0.3750 0.2500 0.2000  plane waves:    2410
 k-point 26 :   0.0000 0.0000 0.4000  plane waves:    2424
 k-point 27 :   0.1250 0.0000 0.4000  plane waves:    2443
 k-point 28 :   0.2500 0.0000 0.4000  plane waves:    2434
 k-point 29 :   0.3750 0.0000 0.4000  plane waves:    2426
 k-point 30 :   0.5000 0.0000 0.4000  plane waves:    2400
 k-point 31 :  -0.3750 0.0000 0.4000  plane waves:    2426
 k-point 32 :  -0.2500 0.0000 0.4000  plane waves:    2434
 k-point 33 :  -0.1250 0.0000 0.4000  plane waves:    2443
 k-point 34 :   0.1250 0.1250 0.4000  plane waves:    2430
 k-point 35 :   0.2500 0.1250 0.4000  plane waves:    2426
 k-point 36 :   0.3750 0.1250 0.4000  plane waves:    2408
 k-point 37 :   0.5000 0.1250 0.4000  plane waves:    2408
 k-point 38 :  -0.3750 0.1250 0.4000  plane waves:    2426
 k-point 39 :   0.2500 0.2500 0.4000  plane waves:    2408
 k-point 40 :   0.3750 0.2500 0.4000  plane waves:    2393
 k-point 41 :   0.0000 0.0000 0.0000  plane waves:    2429
 k-point 42 :   0.0172 0.0000 0.0000  plane waves:    2429
 k-point 43 :   0.0345 0.0000 0.0000  plane waves:    2417
 k-point 44 :   0.0517 0.0000 0.0000  plane waves:    2401
 k-point 45 :   0.0690 0.0000 0.0000  plane waves:    2407
 k-point 46 :   0.0862 0.0000 0.0000  plane waves:    2407
 k-point 47 :   0.1034 0.0000 0.0000  plane waves:    2407
 k-point 48 :   0.1207 0.0000 0.0000  plane waves:    2413
 k-point 49 :   0.1379 0.0000 0.0000  plane waves:    2417
 k-point 50 :   0.1552 0.0000 0.0000  plane waves:    2421
 k-point 51 :   0.1724 0.0000 0.0000  plane waves:    2429
 k-point 52 :   0.1897 0.0000 0.0000  plane waves:    2435
 k-point 53 :   0.2069 0.0000 0.0000  plane waves:    2435
 k-point 54 :   0.2241 0.0000 0.0000  plane waves:    2425
 k-point 55 :   0.2414 0.0000 0.0000  plane waves:    2429
 k-point 56 :   0.2586 0.0000 0.0000  plane waves:    2427
 k-point 57 :   0.2759 0.0000 0.0000  plane waves:    2431
 k-point 58 :   0.2931 0.0000 0.0000  plane waves:    2429
 k-point 59 :   0.3103 0.0000 0.0000  plane waves:    2429
 k-point 60 :   0.3276 0.0000 0.0000  plane waves:    2421
[...]
 k-point 85 :   0.4195 0.1609 0.0000  plane waves:    2410
 k-point 86 :   0.4138 0.1724 0.0000  plane waves:    2406
 k-point 87 :   0.4080 0.1839 0.0000  plane waves:    2406
 k-point 88 :   0.4023 0.1954 0.0000  plane waves:    2402
 k-point 89 :   0.3966 0.2069 0.0000  plane waves:    2410
 k-point 90 :   0.3908 0.2184 0.0000  plane waves:    2420
 k-point 91 :   0.3851 0.2299 0.0000  plane waves:    2428
 k-point 92 :   0.3793 0.2414 0.0000  plane waves:    2424
 k-point 93 :   0.3736 0.2529 0.0000  plane waves:    2424
 k-point 94 :   0.3678 0.2644 0.0000  plane waves:    2430
 k-point 95 :   0.3621 0.2759 0.0000  plane waves:    2430
 k-point 96 :   0.3563 0.2874 0.0000  plane waves:    2426
 k-point 97 :   0.3506 0.2989 0.0000  plane waves:    2426
 k-point 98 :   0.3448 0.3103 0.0000  plane waves:    2422
 k-point 99 :   0.3391 0.3218 0.0000  plane waves:    2420
 k-point ** :   0.3333 0.3333 0.0000  plane waves:    2424
 k-point ** :   0.3333 0.3333 0.0000  plane waves:    2424
 k-point ** :   0.3218 0.3218 0.0000  plane waves:    2418
 k-point ** :   0.3103 0.3103 0.0000  plane waves:    2422
 k-point ** :   0.2989 0.2989 0.0000  plane waves:    2420
 k-point ** :   0.2874 0.2874 0.0000  plane waves:    2414
 k-point ** :   0.2759 0.2759 0.0000  plane waves:    2402
 k-point ** :   0.2644 0.2644 0.0000  plane waves:    2400
 k-point ** :   0.2529 0.2529 0.0000  plane waves:    2408
 k-point ** :   0.2414 0.2414 0.0000  plane waves:    2411
 k-point ** :   0.2299 0.2299 0.0000  plane waves:    2417
 k-point ** :   0.2184 0.2184 0.0000  plane waves:    2421
 k-point ** :   0.2069 0.2069 0.0000  plane waves:    2405
 k-point ** :   0.1954 0.1954 0.0000  plane waves:    2403
 k-point ** :   0.1839 0.1839 0.0000  plane waves:    2415
 k-point ** :   0.1724 0.1724 0.0000  plane waves:    2415
 k-point ** :   0.1609 0.1609 0.0000  plane waves:    2415
 k-point ** :   0.1494 0.1494 0.0000  plane waves:    2427
 k-point ** :   0.1379 0.1379 0.0000  plane waves:    2425
 k-point ** :   0.1264 0.1264 0.0000  plane waves:    2429
 k-point ** :   0.1149 0.1149 0.0000  plane waves:    2429
 k-point ** :   0.1034 0.1034 0.0000  plane waves:    2425
 k-point ** :   0.0920 0.0920 0.0000  plane waves:    2417
 k-point ** :   0.0805 0.0805 0.0000  plane waves:    2417
 k-point ** :   0.0690 0.0690 0.0000  plane waves:    2409
 k-point ** :   0.0575 0.0575 0.0000  plane waves:    2405
 k-point ** :   0.0460 0.0460 0.0000  plane waves:    2403
 k-point ** :   0.0345 0.0345 0.0000  plane waves:    2401
 k-point ** :   0.0230 0.0230 0.0000  plane waves:    2415
 k-point ** :   0.0115 0.0115 0.0000  plane waves:    2429
 k-point ** :   0.0000 0.0000 0.0000  plane waves:    2429
 k-point ** :   0.0000 0.0000 0.0000  plane waves:    2429
 k-point ** :   0.0000 0.0000 0.0172  plane waves:    2429
 k-point ** :   0.0000 0.0000 0.0345  plane waves:    2423
 k-point ** :   0.0000 0.0000 0.0517  plane waves:    2423
 k-point ** :   0.0000 0.0000 0.0690  plane waves:    2423
 k-point ** :   0.0000 0.0000 0.0862  plane waves:    2423
 k-point ** :   0.0000 0.0000 0.1034  plane waves:    2411
 k-point ** :   0.0000 0.0000 0.1207  plane waves:    2405
 k-point ** :   0.0000 0.0000 0.1379  plane waves:    2417
 k-point ** :   0.0000 0.0000 0.1552  plane waves:    2418
 k-point ** :   0.0000 0.0000 0.1724  plane waves:    2430
 k-point ** :   0.0000 0.0000 0.1897  plane waves:    2430
 k-point ** :   0.0000 0.0000 0.2069  plane waves:    2430
 k-point ** :   0.0000 0.0000 0.2241  plane waves:    2442
 k-point ** :   0.0000 0.0000 0.2414  plane waves:    2442
 k-point ** :   0.0000 0.0000 0.2586  plane waves:    2430
 k-point ** :   0.0000 0.0000 0.2759  plane waves:    2430
 k-point ** :   0.0000 0.0000 0.2931  plane waves:    2430
 k-point ** :   0.0000 0.0000 0.3103  plane waves:    2430
 k-point ** :   0.0000 0.0000 0.3276  plane waves:    2430
 k-point ** :   0.0000 0.0000 0.3448  plane waves:    2424
 k-point ** :   0.0000 0.0000 0.3621  plane waves:    2424
 k-point ** :   0.0000 0.0000 0.3793  plane waves:    2424
 k-point ** :   0.0000 0.0000 0.3966  plane waves:    2424
 k-point ** :   0.0000 0.0000 0.4138  plane waves:    2412
 k-point ** :   0.0000 0.0000 0.4310  plane waves:    2406
 k-point ** :   0.0000 0.0000 0.4483  plane waves:    2412
 k-point ** :   0.0000 0.0000 0.4655  plane waves:    2412
 k-point ** :   0.0000 0.0000 0.4828  plane waves:    2418
[...]
 k-point ** :   0.1609 0.1609 0.5000  plane waves:    2426
 k-point ** :   0.1494 0.1494 0.5000  plane waves:    2434
 k-point ** :   0.1379 0.1379 0.5000  plane waves:    2434
 k-point ** :   0.1264 0.1264 0.5000  plane waves:    2440
 k-point ** :   0.1149 0.1149 0.5000  plane waves:    2452
 k-point ** :   0.1034 0.1034 0.5000  plane waves:    2452
 k-point ** :   0.0920 0.0920 0.5000  plane waves:    2450
 k-point ** :   0.0805 0.0805 0.5000  plane waves:    2444
 k-point ** :   0.0690 0.0690 0.5000  plane waves:    2436
 k-point ** :   0.0575 0.0575 0.5000  plane waves:    2440
 k-point ** :   0.0460 0.0460 0.5000  plane waves:    2436
 k-point ** :   0.0345 0.0345 0.5000  plane waves:    2424
 k-point ** :   0.0230 0.0230 0.5000  plane waves:    2412
 k-point ** :   0.0115 0.0115 0.5000  plane waves:    2416
 k-point ** :   0.0000 0.0000 0.5000  plane waves:    2424

 maximum and minimum number of plane-waves per node :       259      220

 maximum number of plane-waves:      2452
 maximum index in each direction:
   IXMAX=    7   IYMAX=    7   IZMAX=   11
   IXMIN=   -7   IYMIN=   -7   IZMIN=  -12

 parallel 3D FFT for wavefunctions:
    minimum data exchange during FFTs selected (reduces bandwidth)
 parallel 3D FFT for charge:
    minimum data exchange during FFTs selected (reduces bandwidth)

 Broyden mixing: mesh for mixing (old mesh)
   NGX = 15   NGY = 15   NGZ = 23
  (NGX  = 48   NGY  = 48   NGZ  = 72)
  gives a total of   5175 points

 initial charge density was supplied:
 charge density of overlapping atoms calculated
 number of electron      16.0000000 magnetization
 keeping initial charge density in first step

 Maximum index for augmentation-charges          371 (set IRDMAX)

 First call to EWALD:  gamma=   0.347
 Maximum number of real-space cells 3x 3x 2
 Maximum number of reciprocal cells 3x 3x 4

--------------------------------------- Iteration      1(   1)  ---------------------------------------

 BZINTS: Fermi energy:  8.815016; 16.000000 electrons
         Band energy:  46.841761;  BLOECHL correction: -0.297840

 eigenvalue-minimisations  :  8000
 total energy-change (2. order) : 0.3513878E+02  (-0.4343505E+03)
 number of electron      16.0000000 magnetization
 augmentation part       16.0000000 magnetization

 Free energy of the ion-electron system (eV)
  alpha Z        PSCENC =         5.24900307
  Ewald energy   TEWEN  =      -387.53429618
  -Hartree energ DENC   =       -23.13503979
  -exchange      EXHF   =         0.00000000
  -V(xc)+E(xc)   XCENC  =      -238.79456755
  PAW double counting   =       523.27902600     -259.77882247
  entropy T*S    EENTRO =         0.00000000
  eigenvalues    EBANDS =        46.84176089
  atomic energy  EATOM  =       369.01171218
  Solvation  Ediel_sol  =         0.00000000
  free energy    TOTEN  =        35.13877614 eV

  energy without entropy =       35.13877614  energy(sigma->0) =       35.13877614

[...]

 eigenvalue-minimisations  : 10216
 total energy-change (2. order) :-0.4763933E+02  (-0.4281866E+02)
 number of electron      16.0000000 magnetization
 augmentation part       16.0000000 magnetization

[...]

 Broyden mixing:
  rms(total) = 0.43560E+00    rms(broyden)= 0.43560E+00
  rms(prec ) = 0.69760E+00
  weight for this iteration     100.00

[...]

 eigenvalues of (default mixing * dielectric matrix)
  average eigenvalue GAMMA=   2.2327
  2.2327

[...]

 eigenvalue-minimisations  : 10040
 total energy-change (2. order) : 0.6798811E-04  (-0.5701838E-04)
 number of electron      15.9999995 magnetization
 augmentation part       -1.5366297 magnetization

[...]

 Broyden mixing:
  rms(total) = 0.75784E-03    rms(broyden)= 0.75784E-03
  rms(prec ) = 0.10700E-02
  weight for this iteration     100.00

 eigenvalues of (default mixing * dielectric matrix)
  average eigenvalue GAMMA=   1.7957
  2.9349  2.6940  1.6762  0.9939  1.3191  1.1562

[...]

--------------------------------------- Iteration      1(  12)  ---------------------------------------

 BZINTS: Fermi energy:  4.535512; 16.000000 electrons
         Band energy:   2.542675;  BLOECHL correction: -0.000000

 eigenvalue-minimisations  : 10600
 total energy-change (2. order) :-0.6316427E-06  (-0.3985710E-06)
 number of electron      15.9999995 magnetization
 augmentation part       -1.5369278 magnetization

 Free energy of the ion-electron system (eV)
  alpha Z        PSCENC =         5.24900307
  Ewald energy   TEWEN  =      -387.53429618
  -Hartree energ DENC   =       -29.73864869
  -exchange      EXHF   =         0.00000000
  -V(xc)+E(xc)   XCENC  =      -237.45162183
  PAW double counting   =       970.59368848     -707.31741625
  entropy T*S    EENTRO =         0.00000000
  eigenvalues    EBANDS =         2.54267502
  atomic energy  EATOM  =       369.01171218
  Solvation  Ediel_sol  =         0.00000000
  free energy    TOTEN  =       -14.64490422 eV

  energy without entropy =      -14.64490422  energy(sigma->0) =      -14.64490422

 average (electrostatic) potential at core
  the test charge radii are     1.0714  1.1712
  (the norm of the test charge is              1.0000)
       1 -38.5307       2 -37.8428       3 -37.8428       4 -87.6100       5 -87.6100

 E-fermi :   4.5355     XC(G=0):  -8.7341     alpha+bet : -9.2324

 k-point     1 :       0.0000    0.0000    0.0000
  band No.  band energies     occupation
      1      -5.8853      2.00000
      2      -4.6652      2.00000
      3      -0.5184      2.00000
      4       3.2636      2.00000
      5       3.2636      2.00000
      6       3.9565      2.00000
      7       3.9565      2.00000
      8       4.3505      2.00000
      9       5.3532      0.00000
     10       5.5213      0.00000
     11       7.3750      0.00000
     12       7.3750      0.00000
     13       8.1687      0.00000
     14       8.3807      0.00000
     15       8.3807      0.00000
     16       9.2928      0.00000

[...]

 k-point   250 :       0.0000    0.0000    0.5000
  band No.  band energies     occupation
      1      -5.4909      0.00000
      2      -5.2825      0.00000
      3       1.2906      0.00000
      4       1.3626      0.00000
      5       3.5745      0.00000
      6       3.5745      0.00000
      7       3.6248      0.00000
      8       3.6248      0.00000
      9       6.0803      0.00000
     10       6.1341      0.00000
     11       7.0272      0.00000
     12       7.0272      0.00000
     13       7.8868      0.00000
     14       7.8868      0.00000
     15       8.1524      0.00000
     16       8.7116      0.00000

 soft charge-density along one line, spin component           1
         0         1         2         3         4         5         6         7         8         9
 total charge-density along one line

------------------------ aborting loop because EDIFF is reached ----------------------------------------

  FORCE on cell =-STRESS in cart. coord.  units (eV):
  Direction    XX          YY          ZZ          XY          YZ          ZX
  Alpha Z     5.24900     5.24900     5.24900
  Ewald    -129.14694  -129.14692  -129.24091    -0.00001     0.00000     0.00000
  Hartree     9.44744     9.44744    10.84272     0.00000     0.00000     0.00000
  E(xc)     -55.96605   -55.96606   -55.73164    -0.00001    -0.00000     0.00000
  Local     -72.24620   -72.24624   -73.41392    -0.00002    -0.00000    -0.00000
  n-local   186.35167   189.85399   185.91519    -4.28077    -0.45088    -0.57982
  augment   -33.38461   -33.38458   -32.96363     0.00003    -0.00000     0.00000
  Kinetic    85.92636    89.92225    89.35988    -2.86416     0.30035    -0.44311
  Fock        0.00000     0.00000     0.00000     0.00000     0.00000     0.00000
  Total      -0.02023    -0.02023     0.01670     0.00000     0.00000    -0.00000
  in kB      -0.24352    -0.24352     0.20097     0.00000     0.00000    -0.00000

 VOLUME and BASIS-vectors are now :
  energy-cutoff  :      400.00
  volume of cell :      133.11
      direct lattice vectors                 reciprocal lattice vectors
     4.597849902  0.000000000  0.000000000     0.217492963  0.125569621  0.000000000
    -2.298924951  3.981854818  0.000000000     0.000000000  0.251139242  0.000000000
     0.000000000  0.000000000  7.270638344     0.000000000  0.000000000  0.137539505

  length of vectors
     4.597849902  4.597849902  7.270638344     0.251139242  0.251139242  0.137539505

 FORCES acting on ions
    electron-ion (+dipol)            ewald-force                    non-local-force                 convergence-correction
   -.127E-06 -.424E-14 0.577E-07   -.902E-06 -.217E-12 0.389E-06   0.000E+00 0.000E+00 0.000E+00   0.690E-09 0.187E-15 0.365E-07
   -.143E-05 0.167E-05 0.217E+01   -.167E-05 -.208E-05 -.230E+01   0.416E-16 -.416E-16 0.137E+00   0.218E-08 0.458E-09 0.156E-03
   -.370E-06 -.167E-05 -.217E+01   0.175E-05 0.208E-05 0.230E+01   -.971E-16 0.416E-16 -.137E+00   -.255E-08 -.458E-09 -.156E-03
   0.305E-06 -.138E-04 -.265E+01   -.171E-05 -.257E-05 0.752E+00   0.208E-16 0.000E+00 0.190E+01   0.236E-08 0.568E-08 -.614E-03
   0.233E-04 0.138E-04 0.265E+01   0.252E-05 0.257E-05 -.752E+00   0.000E+00 0.000E+00 -.190E+01   -.660E-08 -.568E-08 0.614E-03
   0.216E-04 0.258E-11 -.377E-04   0.260E-15 0.310E-15 0.355E-14   -.347E-16 0.000E+00 0.000E+00   -.392E-08 0.220E-13 0.225E-07

 POSITION                                       TOTAL-FORCE (eV/Angst)
      0.00000      0.00000      0.00000         0.000000      0.000000     -0.000000
     -0.00000      2.65457      4.59531         0.000000      0.000000      0.000896
      2.29892      1.32728      2.67533         0.000000      0.000000     -0.000896
     -0.00000      2.65457      1.63863         0.000000      0.000000      0.000570
      2.29892      1.32728      5.63201        -0.000000     -0.000000     -0.000570
    total drift:                                0.000022      0.000000     -0.000038

  FREE ENERGIE OF THE ION-ELECTRON SYSTEM (eV)
  free  energy   TOTEN  =       -14.64490422 eV

  energy  without entropy=      -14.64490422  energy(sigma->0) =      -14.64490422

 writing wavefunctions
 BZINTS: Fermi energy:  4.535512; 16.000000 electrons
         Band energy:   2.542675;  BLOECHL correction: -0.000000