 vasp.5.4.4.18Apr17-6-g9f103f2a35 (build May 24 2018 15:12:59) complex

 executed on             LinuxIFC date 2021.02.16  10:47:31

 INCAR:
 POTCAR:    PAW_PBE Mg 13Apr2007
 POTCAR:    PAW_PBE Sb 06Sep2000
 POTCAR:    PAW_PBE Mg 13Apr2007
   VRHFIN =Mg: s2p0

   TITEL  = PAW_PBE Mg 13Apr2007
   POMASS =   24.305; ZVAL   =    2.000    mass and valenz
   ENMAX  =  126.143; ENMIN  =   94.607 eV

 POTCAR:    PAW_PBE Sb 06Sep2000
   VRHFIN =Sb: s2p3

   TITEL  = PAW_PBE Sb 06Sep2000
   POMASS =  121.750; ZVAL   =    5.000    mass and valenz
   ENMAX  =  172.069; ENMIN  =  129.052 eV

  PAW_PBE Mg 13Apr2007                  :
  PAW_PBE Sb 06Sep2000                  :

 POSCAR: Mg3Sb2
  positions in direct lattice
  velocities in cartesian coordinates

 METAGGA = MBJ      LMAXTAU =  6    LMIXTAU =  F    CMBJ =    1.0000

 ion  position               nearest neighbor table
   1  0.000  0.000  0.000-   5 3.12   5 3.12   5 3.12   4 3.12   4 3.12   4 3.12
   2  0.333  0.667  0.632-   5 2.85   5 2.85   5 2.85   4 2.96   3 3.28   3 3.28   3 3.28
   3  0.667  0.333  0.368-   4 2.85   4 2.85   4 2.85   5 2.96   2 3.28   2 3.28   2 3.28
   4  0.333  0.667  0.225-   3 2.85   3 2.85   3 2.85   2 2.96   1 3.12   1 3.12   1 3.12
   5  0.667  0.333  0.775-   2 2.85   2 2.85   2 2.85   3 2.96   1 3.12   1 3.12   1 3.12

  LATTYP: Found a hexagonal cell.
 ALAT       =     4.5978499023
 C/A-ratio  =     1.5813126784

  Lattice vectors:

 A1 = (   4.5978499024,   0.0000000000,   0.0000000000)
 A2 = (  -2.2989249512,   3.9818548182,   0.0000000000)
 A3 = (   0.0000000000,   0.0000000000,   7.2706383437)

Analysis of symmetry for initial positions (statically):
 Subroutine PRICEL returns:
 Original cell was already a primitive cell.

 Routine SETGRP: Setting up the symmetry group for a
 hexagonal supercell.

 Subroutine GETGRP returns: Found 12 space group operations
 (whereof 12 operations were pure point group operations)
 out of a pool of 24 trial point group operations.

The static configuration has the point symmetry D_3d.

Analysis of symmetry for dynamics (positions and initial velocities):
 Subroutine PRICEL returns:
 Original cell was already a primitive cell.

 Routine SETGRP: Setting up the symmetry group for a
 hexagonal supercell.

 Subroutine GETGRP returns: Found 12 space group operations
 (whereof 12 operations were pure point group operations)
 out of a pool of 24 trial point group operations.

The dynamic configuration has the point symmetry D_3d.

 Subroutine INISYM returns: Found 12 space group operations
 (whereof 12 operations are pure point group operations),
 and found     1 'primitive' translations

 KPOINTS: Automatically generated mesh
  k-points in reciprocal lattice
Space group operators:
 irot       det(A)        alpha          n_x          n_y          n_z        tau_x        tau_y        tau_z
    1     1.000000     0.000001     1.000000     0.000000     0.000000     0.000000     0.000000     0.000000
    2    -1.000000     0.000001     1.000000     0.000000     0.000000     0.000000     0.000000     0.000000
    3     1.000000   120.000000     0.000000     0.000000    -1.000000     0.000000     0.000000     0.000000
    4    -1.000000   120.000000     0.000000     0.000000    -1.000000     0.000000     0.000000     0.000000
    5     1.000000   120.000000     0.000000     0.000000     1.000000     0.000000     0.000000     0.000000
    6    -1.000000   120.000000     0.000000     0.000000     1.000000     0.000000     0.000000     0.000000
    7     1.000000   180.000000     1.000000     0.000000     0.000000     0.000000     0.000000     0.000000
    8    -1.000000   180.000000     1.000000     0.000000     0.000000     0.000000     0.000000     0.000000
    9     1.000000   180.000000     0.500000    -0.866025     0.000000     0.000000     0.000000     0.000000
   10    -1.000000   180.000000     0.500000    -0.866025     0.000000     0.000000     0.000000     0.000000
   11     1.000000   180.000000    -0.500000    -0.866025     0.000000     0.000000     0.000000     0.000000
   12    -1.000000   180.000000    -0.500000    -0.866025     0.000000     0.000000     0.000000     0.000000

 SYSTEM =  unknown system
 POSCAR =  Mg3Sb2

 Startparameter for this run:
   NWRITE =      2    write-flag & timer
   PREC   = normal    normal or accurate (medium, high low for compatibility)
   ISTART =      1    job   : 0-new  1-cont  2-samecut
   ICHARG =      0    charge: 1-file 2-atom 10-const
   ISPIN  =      1    spin polarized calculation?
   LNONCOLLINEAR =      F non collinear calculations
   LSORBIT =      F    spin-orbit coupling
   INIWAV =      1    electr: 0-lowe 1-rand  2-diag
   LASPH  =      T    aspherical Exc in radial PAW
   METAGGA=      F    non-selfconsistent MetaGGA calc.

 Electronic Relaxation 1
   ENCUT  =  400.0 eV  29.40 Ry    5.42 a.u.   7.50  7.50 11.86*2*pi/ulx,y,z
   ENINI  =  400.0     initial cutoff
   ENAUG  =  454.7 eV  augmentation charge cutoff
   NELM   =    300;   NELMIN=  2; NELMDL=  0     # of ELM steps
   EDIFF  = 0.1E-05   stopping-criterion for ELM
   LREAL  =      F    real-space projection
   NLSPLINE    = F    spline interpolate recip. space projectors
   LCOMPAT=      F    compatible to vasp.4.4
   GGA_COMPAT  = T    GGA compatible to vasp.4.4-vasp.4.6
   LMAXPAW     = -100 max onsite density
   LMAXMIX     =    4 max onsite mixed and CHGCAR
   VOSKOWN=      0    Vosko Wilk Nusair interpolation
   ROPT   =    0.00000   0.00000
 Ionic relaxation
   EDIFFG = 0.1E-04   stopping-criterion for IOM
   NSW    =      0    number of steps for IOM
   NBLOCK =      1;   KBLOCK =      1    inner block; outer block
   IBRION =     -1    ionic relax: 0-MD 1-quasi-New 2-CG
   NFREE  =      0    steps in history (QN), initial steepest desc. (CG)
   ISIF   =      2    stress and relaxation
   IWAVPR =     10    prediction:  0-non 1-charg 2-wave 3-comb
   ISYM   =      2    0-nonsym 1-usesym 2-fastsym
   LCORR  =      T    Harris-Foulkes like correction to forces

   POTIM  = 0.5000    time-step for ionic-motion
   TEIN   =    0.0    initial temperature
   TEBEG  =    0.0;   TEEND  =   0.0 temperature during run
   SMASS  =  -3.00    Nose mass-parameter (am)
   estimated Nose-frequenzy (Omega)   =  0.10E-29 period in steps =****** mass=  -0.483E-27a.u.
   SCALEE = 1.0000    scale energy and forces
   NPACO  =    256;   APACO  = 16.0  distance and # of slots for P.C.
   PSTRESS=    0.0 pullay stress

  Mass of Ions in am
   POMASS =  24.30121.75
  Ionic Valenz
   ZVAL   =   2.00  5.00
  Atomic Wigner-Seitz radii
  virtual crystal weights
   VCA    =   1.00  1.00
   NELECT =      16.0000    total number of electrons
   NUPDOWN=      -1.0000    fix difference up-down

 DOS related values:
   EMIN   =  10.00;   EMAX   =-10.00  energy-range for DOS
   EFERMI =   0.00
   ISMEAR =    -5;   SIGMA  =   0.20  broadening in eV -4-tet -1-fermi 0-gaus

 Electronic relaxation 2 (details)
   IALGO  =     38    algorithm
   LDIAG  =      T    sub-space diagonalisation (order eigenvalues)
   LSUBROT=      F    optimize rotation matrix (better conditioning)
   TURBO    =      0    0=normal 1=particle mesh
   IRESTART =      0    0=no restart 2=restart with 2 vectors
   NREBOOT  =      0    no. of reboots
   NMIN     =      0    reboot dimension
   EREF     =   0.00    reference energy to select bands
   IMIX   =      4    mixing-type and parameters
     AMIX     =   0.40;   BMIX     =  1.00
     AMIX_MAG =   1.60;   BMIX_MAG =  1.00
     AMIN     =   0.10
     WC   =   100.;   INIMIX=   1;  MIXPRE=   1;  MAXMIX= -45

 Intra band minimization:
   WEIMIN = 0.0000     energy-eigenvalue tresh-hold
   EBREAK =  0.16E-07  absolut break condition
   DEPER  =   0.30     relativ break condition

   TIME   =   0.40     timestep for ELM

  volume/ion in A,a.u.               =      26.62       179.65
  Fermi-wavevector in a.u.,A,eV,Ry     =   0.807937  1.526779  8.881358  0.652761
  Thomas-Fermi vector in A             =   1.916649

 Write flags
   LWAVE        =      T    write WAVECAR
   LDOWNSAMPLE  =      F    k-point downsampling of WAVECAR
   LCHARG       =      T    write CHGCAR
   LVTOT        =      F    write LOCPOT, total local potential
   LVHAR        =      F    write LOCPOT, Hartree potential only
   LELF         =      F    write electronic localiz. function (ELF)
   LORBIT       =      0    0 simple, 1 ext, 2 COOP (PROOUT), +10 PAW based schemes

 Dipole corrections
   LMONO  =      F    monopole corrections only (constant potential shift)
   LDIPOL =      F    correct potential (dipole corrections)
   IDIPOL =      0    1-x, 2-y, 3-z, 4-all directions
   EPSILON=  1.0000000 bulk dielectric constant

 Exchange correlation treatment:
   GGA     =    CA    GGA type
   VOSKOWN=      0    Vosko Wilk Nusair interpolation
   LHFCALC =     F    Hartree Fock is set to
   LHFONE  =     F    Hartree Fock one center treatment
   AEXX    =    0.0000 exact exchange contribution

 Linear response parameters
   LEPSILON=     F    determine dielectric tensor
   LRPA    =     F    only Hartree local field effects (RPA)
   LNABLA  =     F    use nabla operator in PAW spheres
   LVEL    =     F    velocity operator in full k-point grid
   LINTERFAST=   F  fast interpolation
   KINTER  =     0    interpolate to denser k-point grid
   CSHIFT  =0.1000    complex shift for real part using Kramers Kronig
   OMEGAMAX=  -1.0    maximum frequency
   DEG_THRESHOLD= 0.2000000E-02 threshold for treating states as degnerate
   RTIME   =   -0.100 relaxation time in fs
  (WPLASMAI=    0.000 imaginary part of plasma frequency in eV, 0.658/RTIME)
   DFIELD  = 0.0000000 0.0000000 0.0000000 field for delta impulse in time

 Orbital magnetization related:
   ORBITALMAG=     F  switch on orbital magnetization
   LCHIMAG   =     F  perturbation theory with respect to B field
   DQ        =  0.001000  dq finite difference perturbation B field
   LLRAUG    =     F  two centre corrections for induced B field

 Static calculation
 charge density and potential will be updated during run
 non-spin polarized calculation
 Variant of blocked Davidson
 Davidson routine will perform the subspace rotation
 perform sub-space diagonalisation
    after iterative eigenvector-optimisation
 modified Broyden-mixing scheme, WC =      100.0
 initial mixing is a Kerker type mixing with AMIX =  0.4000 and BMIX =      1.0000
 Hartree-type preconditioning will be used
 using additional bands            8
 reciprocal scheme for non local part
 use partial core corrections
 calculate Harris-corrections to forces
   (improved forces if not selfconsistent)
 use of overlap-Matrix (Vanderbilt PP)
 Fermi weights with tetrahedron method with Bloechl corrections

  energy-cutoff  :      400.00
  volume of cell :      133.11
      direct lattice vectors                 reciprocal lattice vectors
     4.597849902  0.000000000  0.000000000     0.217492963  0.125569621  0.000000000
    -2.298924951  3.981854818  0.000000000     0.000000000  0.251139242  0.000000000
     0.000000000  0.000000000  7.270638344     0.000000000  0.000000000  0.137539505

  length of vectors
[...]
 k-point 27 :   0.1250 0.0000 0.4000  plane waves:    2443
 k-point 28 :   0.2500 0.0000 0.4000  plane waves:    2434
 k-point 29 :   0.3750 0.0000 0.4000  plane waves:    2426
 k-point 30 :   0.5000 0.0000 0.4000  plane waves:    2400
 k-point 31 :  -0.3750 0.0000 0.4000  plane waves:    2426
 k-point 32 :  -0.2500 0.0000 0.4000  plane waves:    2434
 k-point 33 :  -0.1250 0.0000 0.4000  plane waves:    2443
 k-point 34 :   0.1250 0.1250 0.4000  plane waves:    2430
 k-point 35 :   0.2500 0.1250 0.4000  plane waves:    2426
 k-point 36 :   0.3750 0.1250 0.4000  plane waves:    2408
 k-point 37 :   0.5000 0.1250 0.4000  plane waves:    2408
 k-point 38 :  -0.3750 0.1250 0.4000  plane waves:    2426
 k-point 39 :   0.2500 0.2500 0.4000  plane waves:    2408
 k-point 40 :   0.3750 0.2500 0.4000  plane waves:    2393
 k-point 41 :   0.0000 0.0000 0.0000  plane waves:    2429
 k-point 42 :   0.0172 0.0000 0.0000  plane waves:    2429
 k-point 43 :   0.0345 0.0000 0.0000  plane waves:    2417
 k-point 44 :   0.0517 0.0000 0.0000  plane waves:    2401
 k-point 45 :   0.0690 0.0000 0.0000  plane waves:    2407
 k-point 46 :   0.0862 0.0000 0.0000  plane waves:    2407
 k-point 47 :   0.1034 0.0000 0.0000  plane waves:    2407
 k-point 48 :   0.1207 0.0000 0.0000  plane waves:    2413
 k-point 49 :   0.1379 0.0000 0.0000  plane waves:    2417
 k-point 50 :   0.1552 0.0000 0.0000  plane waves:    2421
 k-point 51 :   0.1724 0.0000 0.0000  plane waves:    2429
 k-point 52 :   0.1897 0.0000 0.0000  plane waves:    2435
 k-point 53 :   0.2069 0.0000 0.0000  plane waves:    2435
 k-point 54 :   0.2241 0.0000 0.0000  plane waves:    2425
 k-point 55 :   0.2414 0.0000 0.0000  plane waves:    2429
 k-point 56 :   0.2586 0.0000 0.0000  plane waves:    2427
 k-point 57 :   0.2759 0.0000 0.0000  plane waves:    2431
 k-point 58 :   0.2931 0.0000 0.0000  plane waves:    2429
 k-point 59 :   0.3103 0.0000 0.0000  plane waves:    2429
 k-point 60 :   0.3276 0.0000 0.0000  plane waves:    2421
[...]
 k-point 85 :   0.4195 0.1609 0.0000  plane waves:    2410
 k-point 86 :   0.4138 0.1724 0.0000  plane waves:    2406
 k-point 87 :   0.4080 0.1839 0.0000  plane waves:    2406
 k-point 88 :   0.4023 0.1954 0.0000  plane waves:    2402
 k-point 89 :   0.3966 0.2069 0.0000  plane waves:    2410
 k-point 90 :   0.3908 0.2184 0.0000  plane waves:    2420
 k-point 91 :   0.3851 0.2299 0.0000  plane waves:    2428
 k-point 92 :   0.3793 0.2414 0.0000  plane waves:    2424
 k-point 93 :   0.3736 0.2529 0.0000  plane waves:    2424
 k-point 94 :   0.3678 0.2644 0.0000  plane waves:    2430
 k-point 95 :   0.3621 0.2759 0.0000  plane waves:    2430
 k-point 96 :   0.3563 0.2874 0.0000  plane waves:    2426
 k-point 97 :   0.3506 0.2989 0.0000  plane waves:    2426
 k-point 98 :   0.3448 0.3103 0.0000  plane waves:    2422
 k-point 99 :   0.3391 0.3218 0.0000  plane waves:    2420
 k-point ** :   0.3333 0.3333 0.0000  plane waves:    2424
 k-point ** :   0.3333 0.3333 0.0000  plane waves:    2424
 k-point ** :   0.3218 0.3218 0.0000  plane waves:    2418
 k-point ** :   0.3103 0.3103 0.0000  plane waves:    2422
 k-point ** :   0.2989 0.2989 0.0000  plane waves:    2420
 k-point ** :   0.2874 0.2874 0.0000  plane waves:    2414
 k-point ** :   0.2759 0.2759 0.0000  plane waves:    2402
 k-point ** :   0.2644 0.2644 0.0000  plane waves:    2400
 k-point ** :   0.2529 0.2529 0.0000  plane waves:    2408
 k-point ** :   0.2414 0.2414 0.0000  plane waves:    2411
 k-point ** :   0.2299 0.2299 0.0000  plane waves:    2417
 k-point ** :   0.2184 0.2184 0.0000  plane waves:    2421
 k-point ** :   0.2069 0.2069 0.0000  plane waves:    2405
 k-point ** :   0.1954 0.1954 0.0000  plane waves:    2403
 k-point ** :   0.1839 0.1839 0.0000  plane waves:    2415
 k-point ** :   0.1724 0.1724 0.0000  plane waves:    2415
 k-point ** :   0.1609 0.1609 0.0000  plane waves:    2415
 k-point ** :   0.1494 0.1494 0.0000  plane waves:    2427
 k-point ** :   0.1379 0.1379 0.0000  plane waves:    2425
 k-point ** :   0.1264 0.1264 0.0000  plane waves:    2429
 k-point ** :   0.1149 0.1149 0.0000  plane waves:    2429
 k-point ** :   0.1034 0.1034 0.0000  plane waves:    2425
 k-point ** :   0.0920 0.0920 0.0000  plane waves:    2417
 k-point ** :   0.0805 0.0805 0.0000  plane waves:    2417
 k-point ** :   0.0690 0.0690 0.0000  plane waves:    2409
 k-point ** :   0.0575 0.0575 0.0000  plane waves:    2405
 k-point ** :   0.0460 0.0460 0.0000  plane waves:    2403
 k-point ** :   0.0345 0.0345 0.0000  plane waves:    2401
 k-point ** :   0.0230 0.0230 0.0000  plane waves:    2415
 k-point ** :   0.0115 0.0115 0.0000  plane waves:    2429
 k-point ** :   0.0000 0.0000 0.0000  plane waves:    2429
 k-point ** :   0.0000 0.0000 0.0000  plane waves:    2429
 k-point ** :   0.0000 0.0000 0.0172  plane waves:    2429
 k-point ** :   0.0000 0.0000 0.0345  plane waves:    2423
 k-point ** :   0.0000 0.0000 0.0517  plane waves:    2423
 k-point ** :   0.0000 0.0000 0.0690  plane waves:    2423
 k-point ** :   0.0000 0.0000 0.0862  plane waves:    2423
 k-point ** :   0.0000 0.0000 0.1034  plane waves:    2411
 k-point ** :   0.0000 0.0000 0.1207  plane waves:    2405
 k-point ** :   0.0000 0.0000 0.1379  plane waves:    2417
 k-point ** :   0.0000 0.0000 0.1552  plane waves:    2418
 k-point ** :   0.0000 0.0000 0.1724  plane waves:    2430
 k-point ** :   0.0000 0.0000 0.1897  plane waves:    2430
 k-point ** :   0.0000 0.0000 0.2069  plane waves:    2430
 k-point ** :   0.0000 0.0000 0.2241  plane waves:    2442
 k-point ** :   0.0000 0.0000 0.2414  plane waves:    2442
 k-point ** :   0.0000 0.0000 0.2586  plane waves:    2430
 k-point ** :   0.0000 0.0000 0.2759  plane waves:    2430
 k-point ** :   0.0000 0.0000 0.2931  plane waves:    2430
 k-point ** :   0.0000 0.0000 0.3103  plane waves:    2430
 k-point ** :   0.0000 0.0000 0.3276  plane waves:    2430
 k-point ** :   0.0000 0.0000 0.3448  plane waves:    2424
 k-point ** :   0.0000 0.0000 0.3621  plane waves:    2424
 k-point ** :   0.0000 0.0000 0.3793  plane waves:    2424
 k-point ** :   0.0000 0.0000 0.3966  plane waves:    2424
 k-point ** :   0.0000 0.0000 0.4138  plane waves:    2412
 k-point ** :   0.0000 0.0000 0.4310  plane waves:    2406
 k-point ** :   0.0000 0.0000 0.4483  plane waves:    2412
 k-point ** :   0.0000 0.0000 0.4655  plane waves:    2412
 k-point ** :   0.0000 0.0000 0.4828  plane waves:    2418
[...]
 k-point ** :   0.1609 0.1609 0.5000  plane waves:    2426
 k-point ** :   0.1494 0.1494 0.5000  plane waves:    2434
 k-point ** :   0.1379 0.1379 0.5000  plane waves:    2434
 k-point ** :   0.1264 0.1264 0.5000  plane waves:    2440
 k-point ** :   0.1149 0.1149 0.5000  plane waves:    2452
 k-point ** :   0.1034 0.1034 0.5000  plane waves:    2452
 k-point ** :   0.0920 0.0920 0.5000  plane waves:    2450
 k-point ** :   0.0805 0.0805 0.5000  plane waves:    2444
 k-point ** :   0.0690 0.0690 0.5000  plane waves:    2436
 k-point ** :   0.0575 0.0575 0.5000  plane waves:    2440
 k-point ** :   0.0460 0.0460 0.5000  plane waves:    2436
 k-point ** :   0.0345 0.0345 0.5000  plane waves:    2424
 k-point ** :   0.0230 0.0230 0.5000  plane waves:    2412
 k-point ** :   0.0115 0.0115 0.5000  plane waves:    2416
 k-point ** :   0.0000 0.0000 0.5000  plane waves:    2424

 maximum and minimum number of plane-waves per node :       259      220

 maximum number of plane-waves:      2452
 maximum index in each direction:
   IXMAX=    7   IYMAX=    7   IZMAX=   11
   IXMIN=   -7   IYMIN=   -7   IZMIN=  -12

 parallel 3D FFT for wavefunctions:
    minimum data exchange during FFTs selected (reduces bandwidth)
 parallel 3D FFT for charge:
    minimum data exchange during FFTs selected (reduces bandwidth)

 Broyden mixing: mesh for mixing (old mesh)
   NGX = 15   NGY = 15   NGZ = 23
  (NGX  = 48   NGY  = 48   NGZ  = 72)
  gives a total of   5175 points

 charge density for first step will be calculated from the start-wavefunctions

 Maximum index for augmentation-charges          371 (set IRDMAX)

 initial charge from wavefunction
 First call to EWALD:  gamma=   0.347
 Maximum number of real-space cells 3x 3x 2
 Maximum number of reciprocal cells 3x 3x 4

--------------------------------------- Iteration      1(   1)  ---------------------------------------

    CMBJ =    1.0000

 BZINTS: Fermi energy:  4.171246; 16.000000 electrons
         Band energy:  -9.412258;  BLOECHL correction: -0.000000

 eigenvalue-minimisations  :  8528
 total energy-change (2. order) : 0.9747538E+04  (-0.1358082E+00)
 number of electron      15.9999995 magnetization
 augmentation part       -1.6235160 magnetization

 Broyden mixing:
  rms(total) = 0.15766E+00    rms(broyden)= 0.15766E+00
  rms(prec ) = 0.24091E+00
  weight for this iteration     100.00

 Free energy of the ion-electron system (eV)
  alpha Z        PSCENC =         5.24900307
  Ewald energy   TEWEN  =      -387.53429618
  -Hartree energ DENC   =       -29.73759520
  -exchange      EXHF   =         0.00000000
  -V(xc)+E(xc)   XCENC  =       152.46640514
  PAW double counting   =       540.10026049     9104.17576013
  entropy T*S    EENTRO =         0.00000000
  eigenvalues    EBANDS =        -9.41225763
  atomic energy  EATOM  =       372.23066675
  Solvation  Ediel_sol  =         0.00000000
  free energy    TOTEN  =      9747.53794656 eV

  energy without entropy =     9747.53794656  energy(sigma->0) =     9747.53794656

[...]

 eigenvalues of (default mixing * dielectric matrix)
  average eigenvalue GAMMA=   1.5307
  1.5307

[...]

 eigenvalue-minimisations  :  8760
 total energy-change (2. order) :-0.2941388E-01  (-0.5000390E-03)
 number of electron      15.9999995 magnetization
 augmentation part       -1.5519404 magnetization

[...]

 eigenvalue-minimisations  :  4104
 total energy-change (2. order) : 0.5614393E-05  (-0.1068629E-09)
 number of electron      15.9999995 magnetization
 augmentation part       -1.5485724 magnetization

[...]

 Broyden mixing:
  rms(total) = 0.78347E-06    rms(broyden)= 0.75843E-06
  rms(prec ) = 0.18239E-05
  weight for this iteration     100.00

 eigenvalues of (default mixing * dielectric matrix)
  average eigenvalue GAMMA=   1.6164
  6.9361  3.3042  3.3042  3.0466  2.2058  2.2058  1.5559  1.5559  1.2391  1.2391
  1.2896  0.8087  0.8087  0.9212  0.9212  0.8775  0.5282  0.7129  0.6327  0.6327
  0.4180  0.4180

[...]

--------------------------------------- Iteration      1(  24)  ---------------------------------------

[...]

 BZINTS: Fermi energy:  4.671423; 16.000000 electrons
         Band energy:  -1.030872;  BLOECHL correction: -0.000000

 eigenvalue-minimisations  :  4064
 total energy-change (2. order) :-0.1594562E-06  (-0.1286743E-10)
 number of electron      15.9999995 magnetization
 augmentation part       -1.5485727 magnetization

 Free energy of the ion-electron system (eV)
  alpha Z        PSCENC =         5.24900307
  Ewald energy   TEWEN  =      -387.53429618
  -Hartree energ DENC   =       -32.62361593
  -exchange      EXHF   =         0.00000000
  -V(xc)+E(xc)   XCENC  =       146.13956908
  PAW double counting   =       495.37542955     9151.14064866
  entropy T*S    EENTRO =         0.00000000
  eigenvalues    EBANDS =        -1.03087208
  atomic energy  EATOM  =       372.23066675
  Solvation  Ediel_sol  =         0.00000000
  free energy    TOTEN  =      9748.94653290 eV

  energy without entropy =     9748.94653290  energy(sigma->0) =     9748.94653290

 average (electrostatic) potential at core
  the test charge radii are     1.0714  1.1712
  (the norm of the test charge is              1.0000)
       1 -40.6285       2 -39.7684       3 -39.7684       4 -88.0885       5 -88.0885

 E-fermi :   4.6714     XC(G=0):  -7.8701     alpha+bet : -9.2324

 k-point     1 :       0.0000    0.0000    0.0000
  band No.  band energies     occupation
      1      -6.1032      2.00000
      2      -4.9288      2.00000
      3      -0.6307      2.00000
      4       2.9355      2.00000
      5       2.9355      2.00000
      6       3.6042      2.00000
      7       3.6042      2.00000
      8       3.9950      2.00000
      9       5.5959      0.00000
     10       5.6551      0.00000
     11       7.3712      0.00000
     12       7.3713      0.00000
     13       8.1004      0.00000
     14       8.3125      0.00000
     15       8.3126      0.00000
     16       9.2142      0.00000

[...]

 k-point   250 :       0.0000    0.0000    0.5000
  band No.  band energies     occupation
      1      -5.7185      0.00000
      2      -5.5187      0.00000
      3       1.1543      0.00000
      4       1.1868      0.00000
      5       3.2475      0.00000
      6       3.2475      0.00000
      7       3.2662      0.00000
      8       3.2663      0.00000
      9       6.2083      0.00000
     10       6.2641      0.00000
     11       7.0332      0.00000
     12       7.0334      0.00000
     13       7.8576      0.00000
     14       7.8577      0.00000
     15       8.3576      0.00000
     16       8.8026      0.00000

 soft charge-density along one line, spin component           1
         0         1         2         3         4         5         6         7         8         9
 total charge-density along one line

------------------------ aborting loop because EDIFF is reached ----------------------------------------

  FORCE on cell =-STRESS in cart. coord.  units (eV):
  Direction    XX          YY          ZZ          XY          YZ          ZX
  Alpha Z     5.24900     5.24900     5.24900
  Ewald    -129.14694  -129.14692  -129.24091    -0.00001     0.00000     0.00000
  Hartree    10.38170    10.38170    11.86025     0.00000     0.00000     0.00000
  E(xc)    -283.52977  -283.52977  -283.19474     0.00000    -0.00000    -0.00000
  Local     -73.61958   -73.61962   -74.61993    -0.00002    -0.00000    -0.00000
  n-local   152.83821   155.55913   152.32002    -3.38203    -0.37876    -0.45063
  augment   -31.25473   -31.25471   -30.87451     0.00002     0.00000    -0.00000
  Kinetic    87.42077    91.29477    90.73550    -3.03089     0.17767    -0.34824
  Fock        0.00000     0.00000     0.00000     0.00000     0.00000     0.00000
  Total    -258.36388  -258.36388  -257.76531    -0.00000     0.00000     0.00000
  in kB   -3109.77977 -3109.77977 -3102.57509    -0.00000     0.00000     0.00000

 VOLUME and BASIS-vectors are now :
  energy-cutoff  :      400.00
  volume of cell :      133.11
      direct lattice vectors                 reciprocal lattice vectors
     4.597849902  0.000000000  0.000000000     0.217492963  0.125569621  0.000000000
    -2.298924951  3.981854818  0.000000000     0.000000000  0.251139242  0.000000000
     0.000000000  0.000000000  7.270638344     0.000000000  0.000000000  0.137539505

  length of vectors
     4.597849902  4.597849902  7.270638344     0.251139242  0.251139242  0.137539505

 FORCES acting on ions
    electron-ion (+dipol)            ewald-force                    non-local-force                 convergence-correction
   -.128E-06 -.367E-13 0.573E-07   -.902E-06 -.217E-12 0.389E-06   0.132E-22 0.000E+00 0.000E+00   -.117E-13 -.131E-15 -.657E-13
   -.253E-06 0.820E-06 0.221E+01   -.167E-05 -.208E-05 -.230E+01   -.312E-16 0.000E+00 0.147E+00   0.197E-12 -.149E-12 -.252E-04
   -.154E-05 -.820E-06 -.221E+01   0.175E-05 0.208E-05 0.230E+01   0.000E+00 0.000E+00 -.147E+00   -.936E-13 0.149E-12 0.252E-04
   0.289E-06 -.138E-04 -.264E+01   -.171E-05 -.257E-05 0.752E+00   -.694E-17 0.278E-16 0.231E+01   -.150E-13 0.633E-13 0.981E-04
   0.232E-04 0.138E-04 0.264E+01   0.252E-05 0.257E-05 -.752E+00   0.208E-16 -.278E-16 -.231E+01   -.110E-13 -.636E-13 -.981E-04
   0.216E-04 0.332E-11 -.378E-04   0.260E-15 0.310E-15 0.355E-14   -.173E-16 0.000E+00 -.444E-15   0.654E-13 -.173E-16 0.327E-11

 POSITION                                       TOTAL-FORCE (eV/Angst)
      0.00000      0.00000      0.00000         0.000000      0.000000      0.000000
     -0.00000      2.65457      4.59531         0.000000      0.000000      0.051737
      2.29892      1.32728      2.67533         0.000000      0.000000     -0.051737
     -0.00000      2.65457      1.63863        -0.000000     -0.000000      0.424406
      2.29892      1.32728      5.63201        -0.000000      0.000000     -0.424406
    total drift:                                0.000022      0.000000     -0.000038

  FREE ENERGIE OF THE ION-ELECTRON SYSTEM (eV)
  free  energy   TOTEN  =      9748.94653290 eV

  energy  without entropy=     9748.94653290  energy(sigma->0) =     9748.94653290

    CMBJ =    1.1155

 writing wavefunctions
 BZINTS: Fermi energy:  4.671423; 16.000000 electrons
         Band energy:  -1.030872;  BLOECHL correction: -0.000000